CONTCAR-CH2-CH2-IS                                  
   1.00000000000000     
    14.4588003158999996    0.0000000000000000    0.0000000000000000
     0.0000000000000000   14.4588003158999996    0.0000000000000000
     0.0000000000000000    0.0000000000000000   18.6147003174000005
   Cu   Co   C    H 
    48    48    28     4
Selective dynamics
Direct
  0.0000000000000000  0.0000000000000000  0.1074400022508328   F   F   F
  0.9999423111204635  0.9963253603665478  0.2995603912521076   F   F   F
  0.0000000000000000  0.1249999999662847  0.2045300007027890   F   F   F
  0.1249999999662847  0.3749999999680114  0.1074400022508328   F   F   F
  0.1316347435753045  0.3694031975848304  0.3071059630887589   F   F   F
  0.1249999999662847  0.2500000000017266  0.2045300007027890   F   F   F
  0.2500000000017266  0.0000000000000000  0.1074400022508328   F   F   F
  0.2499097474028815  0.9999892268473189  0.2989294669786844   F   F   F
  0.2500000000017266  0.1249999999662847  0.2045300007027890   F   F   F
  0.3749999999680114  0.3749999999680114  0.1074400022508328   F   F   F
  0.3741867264267640  0.3739440450659330  0.2869777526987392   F   F   F
  0.3749999999680114  0.2500000000017266  0.2045300007027890   F   F   F
  0.5000000000034603  0.0000000000000000  0.1074400022508328   F   F   F
  0.4995921444117499  0.9943415716916704  0.3123098722422029   F   F   F
  0.5000000000034603  0.1249999999662847  0.2045300007027890   F   F   F
  0.6249999999697451  0.3749999999680114  0.1074400022508328   F   F   F
  0.6245649917975484  0.3790074731032291  0.2941958264731070   F   F   F
  0.6249999999697451  0.2500000000017266  0.2045300007027890   F   F   F
  0.7500000000051870  0.0000000000000000  0.1074400022508328   F   F   F
  0.7557028539844239  0.0057749285280835  0.2997226318604689   F   F   F
  0.7500000000051870  0.1249999999662847  0.2045300007027890   F   F   F
  0.8749999999714717  0.3749999999680114  0.1074400022508328   F   F   F
  0.8755200283237770  0.3733143084070605  0.3049146296252729   F   F   F
  0.8749999999714717  0.2500000000017266  0.2045300007027890   F   F   F
  0.0000000000000000  0.5000000000034603  0.1074400022508328   F   F   F
  0.0042762283634445  0.4982894662480177  0.2987097252676350   F   F   F
  0.0000000000000000  0.6249999999697451  0.2045300007027890   F   F   F
  0.1249999999662847  0.8749999999714717  0.1074400022508328   F   F   F
  0.1241410612311142  0.8761490028579431  0.2988365870660772   F   F   F
  0.1249999999662847  0.7500000000051870  0.2045300007027890   F   F   F
  0.2500000000017266  0.5000000000034603  0.1074400022508328   F   F   F
  0.2453776419156526  0.5090012900958811  0.3058896607670718   F   F   F
  0.2500000000017266  0.6249999999697451  0.2045300007027890   F   F   F
  0.3749999999680114  0.8749999999714717  0.1074400022508328   F   F   F
  0.3702932172716586  0.8683989831507972  0.3081589480346167   F   F   F
  0.3749999999680114  0.7500000000051870  0.2045300007027890   F   F   F
  0.5000000000034603  0.5000000000034603  0.1074400022508328   F   F   F
  0.4786109812100605  0.5048910863978193  0.3202231005566105   F   F   F
  0.5000000000034603  0.6249999999697451  0.2045300007027890   F   F   F
  0.6249999999697451  0.8749999999714717  0.1074400022508328   F   F   F
  0.6339291130215230  0.8862536158917464  0.2986937967847965   F   F   F
  0.6249999999697451  0.7500000000051870  0.2045300007027890   F   F   F
  0.7500000000051870  0.5000000000034603  0.1074400022508328   F   F   F
  0.7567908657933060  0.5008076037125804  0.2932945762222374   F   F   F
  0.7500000000051870  0.6249999999697451  0.2045300007027890   F   F   F
  0.8749999999714717  0.8749999999714717  0.1074400022508328   F   F   F
  0.8757190045466743  0.8739946216427441  0.2994723014439344   F   F   F
  0.8749999999714717  0.7500000000051870  0.2045300007027890   F   F   F
  0.1249999999662847  0.1249999999662847  0.1074400022508328   F   F   F
  0.1190355873145279  0.1235240816760452  0.2946436260546861   F   F   F
  0.1249999999662847  0.0000000000000000  0.2045300007027890   F   F   F
  0.0000000000000000  0.2500000000017266  0.1074400022508328   F   F   F
  0.0000727495670603  0.2457314717995658  0.2948914316164633   F   F   F
  0.0000000000000000  0.3749999999680114  0.2045300007027890   F   F   F
  0.3749999999680114  0.1249999999662847  0.1074400022508328   F   F   F
  0.3720849820405334  0.1198834459090037  0.2958790256806481   F   F   F
  0.3749999999680114  0.0000000000000000  0.2045300007027890   F   F   F
  0.2500000000017266  0.2500000000017266  0.1074400022508328   F   F   F
  0.2359942515886146  0.2298453008230865  0.3047206594409744   F   F   F
  0.2500000000017266  0.3749999999680114  0.2045300007027890   F   F   F
  0.6249999999697451  0.1249999999662847  0.1074400022508328   F   F   F
  0.6249651660935953  0.1216591917886305  0.2997514250308697   F   F   F
  0.6249999999697451  0.0000000000000000  0.2045300007027890   F   F   F
  0.5000000000034603  0.2500000000017266  0.1074400022508328   F   F   F
  0.5016150444371803  0.2521840298603877  0.3036860942902706   F   F   F
  0.5000000000034603  0.3749999999680114  0.2045300007027890   F   F   F
  0.8749999999714717  0.1249999999662847  0.1074400022508328   F   F   F
  0.8848641120286160  0.1250717472749088  0.2954430385942857   F   F   F
  0.8749999999714717  0.0000000000000000  0.2045300007027890   F   F   F
  0.7500000000051870  0.2500000000017266  0.1074400022508328   F   F   F
  0.7689639318580817  0.2293412800340917  0.3078217981576756   F   F   F
  0.7500000000051870  0.3749999999680114  0.2045300007027890   F   F   F
  0.1249999999662847  0.6249999999697451  0.1074400022508328   F   F   F
  0.1219111035153020  0.6296208629458349  0.2966474321212829   F   F   F
  0.1249999999662847  0.5000000000034603  0.2045300007027890   F   F   F
  0.0000000000000000  0.7500000000051870  0.1074400022508328   F   F   F
  0.0030950663665479  0.7479656539263075  0.2954737011081008   F   F   F
  0.0000000000000000  0.8749999999714717  0.2045300007027890   F   F   F
  0.3749999999680114  0.6249999999697451  0.1074400022508328   F   F   F
  0.3604065477960816  0.6395711804408251  0.3127527884457635   F   F   F
  0.3749999999680114  0.5000000000034603  0.2045300007027890   F   F   F
  0.2500000000017266  0.7500000000051870  0.1074400022508328   F   F   F
  0.2432781549582614  0.7534245012402678  0.2947599530506437   F   F   F
  0.2500000000017266  0.8749999999714717  0.2045300007027890   F   F   F
  0.6249999999697451  0.6249999999697451  0.1074400022508328   F   F   F
  0.6184259846168132  0.6224674102531367  0.2983103409357923   F   F   F
  0.6249999999697451  0.5000000000034603  0.2045300007027890   F   F   F
  0.5000000000034603  0.7500000000051870  0.1074400022508328   F   F   F
  0.4942556613079248  0.7416021532145649  0.2938228979838797   F   F   F
  0.5000000000034603  0.8749999999714717  0.2045300007027890   F   F   F
  0.8749999999714717  0.6249999999697451  0.1074400022508328   F   F   F
  0.8823715813196031  0.6422589788853443  0.3144046121116588   F   F   F
  0.8749999999714717  0.5000000000034603  0.2045300007027890   F   F   F
  0.7500000000051870  0.7500000000051870  0.1074400022508328   F   F   F
  0.7522723964099001  0.7530299427288440  0.2965443178561529   F   F   F
  0.7500000000051870  0.8749999999714717  0.2045300007027890   F   F   F
  0.4460807051418456  0.3310060087612214  0.4052913496896480   F   F   F
  0.3988914839123723  0.4162771950229995  0.3893712140904384   F   F   F
  0.5467177749489238  0.3271806816606642  0.4066624996674904   F   F   F
  0.6030614164885080  0.4134070854339456  0.4099087269918655   F   F   F
  0.7390409864439533  0.3136654798928475  0.3858839939636241   F   F   F
  0.4835870863691625  0.7154754051275702  0.4018342358600862   F   F   F
  0.4623719425028057  0.8108694057287877  0.3784692904599609   F   F   F
  0.5326459675003932  0.8777128506759553  0.3786445281850916   F   F   F
  0.5651033507147645  0.5045553173607473  0.4022896417651296   F   F   F
  0.6185350700004761  0.5886422114234620  0.4081312382363791   F   F   F
  0.5828064904314729  0.6862860872050618  0.4057642984500234   F   F   F
  0.6507693233573733  0.7641064905865278  0.4087103448454670   F   F   F
  0.6204965417617458  0.8567192980203444  0.4015087934535373   F   F   F
  0.7049400138315605  0.4044858676033130  0.4040332982773691   F   F   F
  0.7603714127833783  0.4843081101375049  0.3968463547248220   F   F   F
  0.7214984125592281  0.5739251886397980  0.4009307980611609   F   F   F
  0.7796085059935578  0.6546158766705972  0.3837232643613788   F   F   F
  0.7452542219414156  0.7408982191639026  0.3947048197400704   F   F   F
  0.2961272895521248  0.2528050354817708  0.3909336114132316   F   F   F
  0.2533837424815388  0.3350754017689113  0.3750262181465160   F   F   F
  0.3033905128689938  0.4226158907654352  0.3751139825807002   F   F   F
  0.3929889234506163  0.2430923634930764  0.4022605319759904   F   F   F
  0.4406712134771311  0.1597947981099281  0.3773620079416418   F   F   F
  0.5377694685236420  0.1543170095285120  0.3779263434717492   F   F   F
  0.5894827490998651  0.2357516462769951  0.3991380806496707   F   F   F
  0.6874833265335596  0.2367768912718020  0.3860214155769128   F   F   F
  0.4056009936142999  0.6544823295972719  0.4155316602877903   T   T   T
  0.2285250743674894  0.6479121536656933  0.3596505511654939   T   T   T
  0.3499457475879879  0.6892939712222415  0.4447869253488648   T   T   T
  0.4215593830298303  0.5861262993922267  0.4374820638547874   T   T   T
  0.2221041358294045  0.6172350699303522  0.4136627767815924   T   T   T
  0.2248248397885320  0.7276591677406047  0.3793489366535976   T   T   T
 
