 Cu   Co   C    H                       
1.0
       14.4588003159         0.0000000000         0.0000000000
        0.0000000000        14.4588003159         0.0000000000
        0.0000000000         0.0000000000        18.6147003174
   Cu   Co    C    H
   48   48   28    4
Direct
     0.000000000         0.000000000         0.107440002
     0.000348985         0.997116029         0.294217676
     0.000442314         0.123763867         0.195401400
     0.125000000         0.375000000         0.107440002
     0.131539270         0.368183583         0.301773787
     0.124787539         0.250334233         0.197702989
     0.250000000         0.000000000         0.107440002
     0.246477902         0.999414384         0.294334441
     0.248803034         0.122349337         0.197067708
     0.375000000         0.375000000         0.107440002
     0.374178618         0.376209259         0.274577498
     0.373738110         0.244573995         0.199437037
     0.500000000         0.000000000         0.107440002
     0.500217736         0.994468391         0.308936089
     0.499232799         0.124439687         0.202614412
     0.625000000         0.375000000         0.107440002
     0.624665380         0.381507069         0.285955101
     0.626292109         0.247841462         0.202061370
     0.750000000         0.000000000         0.107440002
     0.756566763         0.005871365         0.293442160
     0.750780821         0.125494421         0.198747441
     0.875000000         0.375000000         0.107440002
     0.874380410         0.373910457         0.299210906
     0.874755800         0.251799852         0.198658288
     0.000000000         0.500000000         0.107440002
     0.000561537         0.501831949         0.294689417
     0.998310626         0.623654664         0.198901176
     0.125000000         0.875000000         0.107440002
     0.123376220         0.873316824         0.293408126
     0.124459252         0.751118302         0.196866035
     0.250000000         0.500000000         0.107440002
     0.246532276         0.505399704         0.295734853
     0.249375775         0.624677479         0.198412940
     0.375000000         0.875000000         0.107440002
     0.368536443         0.867996633         0.303155482
     0.372742146         0.750098407         0.198805004
     0.500000000         0.500000000         0.107440002
     0.480884820         0.501480877         0.311668009
     0.496928453         0.621252418         0.200403139
     0.625000000         0.875000000         0.107440002
     0.634276211         0.886414349         0.293083578
     0.625374258         0.749926925         0.200095430
     0.750000000         0.500000000         0.107440002
     0.757118106         0.500217080         0.284241468
     0.749977171         0.626665533         0.198204666
     0.875000000         0.875000000         0.107440002
     0.876320720         0.874710262         0.293706864
     0.875867367         0.749716163         0.197564423
     0.125000000         0.125000000         0.107440002
     0.117978975         0.123954020         0.288022608
     0.123843059         0.998318672         0.199763641
     0.000000000         0.250000000         0.107440002
     0.000103244         0.243519858         0.288341105
     0.001476666         0.375571728         0.203498006
     0.375000000         0.125000000         0.107440002
     0.368558019         0.117556751         0.292171896
     0.376171380         0.994876504         0.204479620
     0.250000000         0.250000000         0.107440002
     0.236100063         0.228125766         0.297543228
     0.245406836         0.373805135         0.194064900
     0.625000000         0.125000000         0.107440002
     0.626281857         0.121478163         0.295943439
     0.623601258         0.003958326         0.199653044
     0.500000000         0.250000000         0.107440002
     0.500269353         0.254221171         0.299000114
     0.502459347         0.374224305         0.194402412
     0.875000000         0.125000000         0.107440002
     0.885081053         0.125528395         0.288273692
     0.877011120         0.999631584         0.199353814
     0.750000000         0.250000000         0.107440002
     0.767895937         0.229647651         0.302096277
     0.751618981         0.372675389         0.195328742
     0.125000000         0.625000000         0.107440002
     0.121997714         0.630412102         0.288992852
     0.124383032         0.497867674         0.201584354
     0.000000000         0.750000000         0.107440002
     0.001075067         0.744098783         0.289691806
     0.999227524         0.873757243         0.199632838
     0.375000000         0.625000000         0.107440002
     0.367128581         0.637086153         0.302225918
     0.374553770         0.506568909         0.196169078
     0.250000000         0.750000000         0.107440002
     0.241204530         0.747777820         0.290373713
     0.250171393         0.875710547         0.200229019
     0.625000000         0.625000000         0.107440002
     0.618700445         0.620891511         0.291867852
     0.623103976         0.502369523         0.195986420
     0.500000000         0.750000000         0.107440002
     0.496353507         0.743770659         0.286305249
     0.500398755         0.876712680         0.199346244
     0.875000000         0.625000000         0.107440002
     0.875605702         0.637093961         0.299397379
     0.877689064         0.499773800         0.197229370
     0.750000000         0.750000000         0.107440002
     0.756091118         0.753618300         0.289507836
     0.750945270         0.875950456         0.198418632
     0.445935160         0.329913616         0.397239685
     0.399298728         0.414682180         0.378257573
     0.546206117         0.326070905         0.400485247
     0.602417827         0.412310630         0.403543055
     0.738036156         0.312414199         0.380580544
     0.481268018         0.714608192         0.393775374
     0.460143328         0.810318232         0.372287512
     0.532929778         0.875706136         0.372444719
     0.563874185         0.503153741         0.395985156
     0.617137194         0.587319434         0.401486009
     0.580589354         0.684610665         0.399786949
     0.649381995         0.761730611         0.403194010
     0.619418621         0.854079783         0.396652550
     0.703998029         0.403398126         0.397690147
     0.758864462         0.482996553         0.388390213
     0.719842017         0.572519541         0.392714143
     0.777637780         0.652628839         0.374112099
     0.743253946         0.738505125         0.386962593
     0.295801729         0.252532631         0.384085596
     0.252971530         0.334164470         0.367903769
     0.303532302         0.421324730         0.365604639
     0.392378569         0.242579460         0.395436943
     0.439943671         0.158620939         0.371582061
     0.536959529         0.153460830         0.372283608
     0.588999331         0.234613150         0.393883795
     0.687044621         0.235370070         0.381422788
     0.401313514         0.654752612         0.412998885
     0.271518111         0.665606976         0.369623929
     0.363082319         0.687040925         0.457404643
     0.417366982         0.582894862         0.426625818
     0.239047796         0.616917014         0.407174915
     0.254206628         0.738460839         0.388831407
