CONTCAR-CH3-CH2              
   1.00000000000000     
    14.4588000000000001    0.0000000000000000    0.0000000000000000
     0.0000000000000000   14.4588000000000001    0.0000000000000000
     0.0000000000000000    0.0000000000000000   18.6146999999999991
   H    C    Co   Cu
     5    28    48    48
Selective dynamics
Direct
  0.2775166229331418  0.6453832202076200  0.4818685478667035   T   T   T
  0.4407293741752270  0.5897047718435715  0.4563157659889043   T   T   T
  0.2999918153833718  0.6376299886704970  0.3895816220000654   T   T   T
  0.4373630429902562  0.6907664227249768  0.5095905270937706   T   T   T
  0.3013290764949872  0.7487269235262630  0.4320858193894139   T   T   T
  0.5349225341747044  0.8743891145950258  0.3703298653112554   F   F   F
  0.3927815512513888  0.2472323307445521  0.3957902587282618   F   F   F
  0.4398589125008314  0.1629489711487935  0.3720471262270522   F   F   F
  0.2517265086504636  0.3372470724628727  0.3677483053538566   F   F   F
  0.3024842879690368  0.4245594027224726  0.3665358953842173   F   F   F
  0.6870796304865650  0.2380464661004282  0.3816115088168672   F   F   F
  0.4232153920611950  0.6636526443225605  0.4550875538094061   T   T   T
  0.5367743113891379  0.1573082480524803  0.3730200394968008   F   F   F
  0.5890472402357929  0.2385702483908716  0.3940410126522025   F   F   F
  0.3207980094381497  0.6757175083903419  0.4386139307794325   T   T   T
  0.5698190971034265  0.5083203103351295  0.3958203770531838   F   F   F
  0.5471020959814226  0.3307662078996429  0.4002877797999673   F   F   F
  0.4894933134102359  0.7154845085555479  0.4064629272271674   F   F   F
  0.3983725710501602  0.4196339677077532  0.3798491038222309   F   F   F
  0.4461686791743205  0.3348575568234722  0.3977880605751309   F   F   F
  0.4653799750229979  0.8065350506792441  0.3770523440506750   F   F   F
  0.7394609669054475  0.3140755183884139  0.3804453279946856   F   F   F
  0.6054487860526834  0.4158421201077900  0.4033875237120839   F   F   F
  0.2961694943851469  0.2562726418134318  0.3840864183950217   F   F   F
  0.7516289666653435  0.7418126075841585  0.3900625790354226   F   F   F
  0.6239360755594632  0.8575362935333644  0.3926156637478542   F   F   F
  0.6567852899779112  0.7657323497347264  0.4013798979454748   F   F   F
  0.5889740743815466  0.6879594171810552  0.4031951885697396   F   F   F
  0.6251764605898416  0.5906806279060035  0.4044639736428053   F   F   F
  0.7856095110383876  0.6552348986859897  0.3795403575693541   F   F   F
  0.7273445110207390  0.5745501997965832  0.3962765713553864   F   F   F
  0.7640973376828626  0.4842520757975279  0.3896861137323313   F   F   F
  0.7069998026079531  0.4055434190899447  0.3978202243884823   F   F   F
  0.7500000000000000  0.7500000000000000  0.1074399999999969   F   F   F
  0.7513584747870894  0.7533530886877600  0.2914862237099101   F   F   F
  0.8846144237655196  0.6417380607462277  0.3083635669976701   F   F   F
  0.8782738966605379  0.4981180554554570  0.1974460334369326   F   F   F
  0.5000921782901386  0.8762854110317804  0.1990846686318761   F   F   F
  0.8750000000000000  0.6250000000000000  0.1074399999999969   F   F   F
  0.5000000000000000  0.7500000000000000  0.1074399999999969   F   F   F
  0.4863164528222228  0.7239877381172448  0.2974356184503932   F   F   F
  0.7502570729187283  0.8752574371015456  0.1979090820018499   F   F   F
  0.7514961043774804  0.3728242844152163  0.1954718887998226   F   F   F
  0.1250000000000000  0.6250000000000000  0.1074399999999969   F   F   F
  0.1194945262303904  0.6314669920658673  0.2880158736096377   F   F   F
  0.1238506070393726  0.4969299030192929  0.2010252933035304   F   F   F
  0.8853130274166645  0.1249225687389526  0.2887336946890855   F   F   F
  0.8767359816639129  0.9989426980908718  0.1997074961476315   F   F   F
  0.7500000000000000  0.2500000000000000  0.1074399999999969   F   F   F
  0.7683755375860173  0.2290125477108376  0.3028353049479620   F   F   F
  0.0000000000000000  0.7500000000000000  0.1074399999999969   F   F   F
  0.0031428657949490  0.7481964339798495  0.2893222558004993   F   F   F
  0.6250000000000000  0.6250000000000000  0.1074399999999969   F   F   F
  0.2520375450464840  0.8745339172785549  0.2015904520777667   F   F   F
  0.2436146935888033  0.7444805602859361  0.2877071416616772   F   F   F
  0.2500000000000000  0.7500000000000000  0.1074399999999969   F   F   F
  0.3735223332854432  0.5062740080003323  0.1965492131555990   F   F   F
  0.3616192803170719  0.6283198131345671  0.2856519842591183   F   F   F
  0.3750000000000000  0.6250000000000000  0.1074399999999969   F   F   F
  0.9992486851925122  0.8745343442586346  0.1998756413493439   F   F   F
  0.6243803029602546  0.5026217561642028  0.1958632705761332   F   F   F
  0.6180584214727887  0.6175022252559685  0.2941588888902302   F   F   F
  0.8750000000000000  0.1250000000000000  0.1074399999999969   F   F   F
  0.5023198977912315  0.3744535492185861  0.1942967016864472   F   F   F
  0.6232746712301775  0.0056760928045421  0.1987500748535922   F   F   F
  0.6249752400491673  0.1226442587519259  0.2965433713972558   F   F   F
  0.5009741253258539  0.2564943293038553  0.2984447340861536   F   F   F
  0.5000000000000000  0.2500000000000000  0.1074399999999969   F   F   F
  0.2373644248632516  0.2278482874282730  0.2980140394158823   F   F   F
  0.2500000000000000  0.2500000000000000  0.1074399999999969   F   F   F
  0.6250000000000000  0.1250000000000000  0.1074399999999969   F   F   F
  0.2458066004520418  0.3732779138047917  0.1944741617994055   F   F   F
  0.1250000000000000  0.1250000000000000  0.1074399999999969   F   F   F
  0.1245037290487971  0.9980886447271544  0.2003302003002077   F   F   F
  0.1182569212337441  0.1236725099201337  0.2882944531891525   F   F   F
  0.9998263574735304  0.2430095927951115  0.2886096520246042   F   F   F
  0.0000000000000000  0.2500000000000000  0.1074399999999969   F   F   F
  0.3750000000000000  0.1250000000000000  0.1074399999999969   F   F   F
  0.0015264344230772  0.3743535463604672  0.2032586731980501   F   F   F
  0.3769469919238446  0.9940885008429490  0.2053087862530205   F   F   F
  0.3699055430107094  0.1192422190330547  0.2927102099856356   F   F   F
  0.7500000000000000  0.0000000000000000  0.1074399999999969   F   F   F
  0.6265215505324377  0.2482687941949990  0.2023111447056891   F   F   F
  0.5000000000000000  0.0000000000000000  0.1074399999999969   F   F   F
  0.3737606923529810  0.2459139758286213  0.1998923913726713   F   F   F
  0.3752902304498349  0.3782788697074793  0.2762037224747331   F   F   F
  0.3750000000000000  0.3750000000000000  0.1074399999999969   F   F   F
  0.6237208565646313  0.3833343284774244  0.2862864354986883   F   F   F
  0.6250000000000000  0.3750000000000000  0.1074399999999969   F   F   F
  0.4989809403796528  0.1251393263780898  0.2026129157450924   F   F   F
  0.4989868426014610  0.9926948081763740  0.3082002707549805   F   F   F
  0.2500000000000000  0.0000000000000000  0.1074399999999969   F   F   F
  0.1250483891344984  0.2498504572965174  0.1979664529493306   F   F   F
  0.1312480387429034  0.3661567999094189  0.3023932969323795   F   F   F
  0.1250000000000000  0.3750000000000000  0.1074399999999969   F   F   F
  0.0004797400773526  0.1234550694860417  0.1955487709816381   F   F   F
  0.0005187879735971  0.9962641273694857  0.2946032617373291   F   F   F
  0.0000000000000000  0.0000000000000000  0.1074399999999969   F   F   F
  0.2494385198792131  0.1220544172747537  0.1974679553297420   F   F   F
  0.2486832032832993  0.9993769895948219  0.2950273756830484   F   F   F
  0.0036209955553304  0.4979083533151965  0.2950360429676522   F   F   F
  0.9977533536308982  0.6238376520276887  0.1983535350770111   F   F   F
  0.8745577278819496  0.2515924874908251  0.1989460208044633   F   F   F
  0.0000000000000000  0.5000000000000000  0.1074399999999969   F   F   F
  0.8750000000000000  0.3750000000000000  0.1074399999999969   F   F   F
  0.8744886372273584  0.3735631407018900  0.3001557214367025   F   F   F
  0.7559704665453282  0.0064357890608733  0.2937714602388866   F   F   F
  0.7507700283271035  0.1256015951246496  0.1990545000163166   F   F   F
  0.1250000000000000  0.8750000000000000  0.1074399999999969   F   F   F
  0.1255629731970274  0.8732313805216734  0.2941305559921901   F   F   F
  0.2500000000000000  0.5000000000000000  0.1074399999999969   F   F   F
  0.1241419461098516  0.7519216643507463  0.1962497957719762   F   F   F
  0.2446720923423769  0.6238033274035288  0.1958048063269970   F   F   F
  0.2415358931693063  0.5064603584207674  0.2975654892730830   F   F   F
  0.3707805835531062  0.8627880128928780  0.3070427053597342   F   F   F
  0.3750000000000000  0.8750000000000000  0.1074399999999969   F   F   F
  0.5000000000000000  0.5000000000000000  0.1074399999999969   F   F   F
  0.3757869315717812  0.7519146326571899  0.1982432444530460   F   F   F
  0.4992908375441374  0.6208077987898051  0.1983537563350311   F   F   F
  0.4771881211705917  0.5099049758412946  0.3194037349106793   F   F   F
  0.7571903560893531  0.4998881541947000  0.2848878765519913   F   F   F
  0.7495896443135308  0.6270996106879991  0.1989668554988029   F   F   F
  0.8750000000000000  0.8750000000000000  0.1074399999999969   F   F   F
  0.8746741183275617  0.8743547680171346  0.2943275001696648   F   F   F
  0.6250000000000000  0.8750000000000000  0.1074399999999969   F   F   F
  0.6339020082306916  0.8880621517604155  0.2901269278813601   F   F   F
  0.6212714555283654  0.7487860597407519  0.2025651264263786   F   F   F
  0.7500000000000000  0.5000000000000000  0.1074399999999969   F   F   F
  0.8744787331857822  0.7498893990488895  0.1986293407144473   F   F   F
 
