CONTCAR-VA2-CO                               
   1.00000000000000     
    14.4588003158999996    0.0000000000000000    0.0000000000000000
     0.0000000000000000   14.4588003158999996    0.0000000000000000
     0.0000000000000000    0.0000000000000000   18.6147003174000005
   Cu   Co   C    O 
    48    48    27     1
Selective dynamics
Direct
  0.0000000000000000  0.0000000000000000  0.1074400022508328   F   F   F
  0.0008968781906558  0.9991391963647990  0.2942443982339665   T   T   T
  0.0005291706997612  0.1238688272176820  0.1959853775130711   T   T   T
  0.1249999999662847  0.3749999999680114  0.1074400022508328   F   F   F
  0.1324933936386064  0.3694557457548446  0.3021967450527137   T   T   T
  0.1251241229362052  0.2506500105143514  0.1976242393665997   T   T   T
  0.2500000000017266  0.0000000000000000  0.1074400022508328   F   F   F
  0.2472709977383774  0.0010485482685151  0.2947096101959721   T   T   T
  0.2496297800775024  0.1232053930534631  0.1974443391551436   T   T   T
  0.3749999999680114  0.3749999999680114  0.1074400022508328   F   F   F
  0.3741208160501449  0.3779018234767751  0.2767354485081385   T   T   T
  0.3742868824838992  0.2462632806632790  0.1997158374647740   T   T   T
  0.5000000000034603  0.0000000000000000  0.1074400022508328   F   F   F
  0.4973537215152680  0.9954639278745127  0.3081644180880048   T   T   T
  0.4990371502607202  0.1246799448999351  0.2026844424893564   T   T   T
  0.6249999999697451  0.3749999999680114  0.1074400022508328   F   F   F
  0.6253245962360016  0.3820884486774185  0.2858041671720464   T   T   T
  0.6258365084816450  0.2482023269877376  0.2017162755758262   T   T   T
  0.7500000000051870  0.0000000000000000  0.1074400022508328   F   F   F
  0.7552381386518675  0.0064229408755402  0.2937703563568547   T   T   T
  0.7502783483382811  0.1258771052291582  0.1989774862887539   T   T   T
  0.8749999999714717  0.3749999999680114  0.1074400022508328   F   F   F
  0.8753616769325877  0.3709666615856206  0.2982355877989640   T   T   T
  0.8753268908603820  0.2513366223300055  0.1981979956578001   T   T   T
  0.0000000000000000  0.5000000000034603  0.1074400022508328   F   F   F
  0.0017034134042592  0.4993233312696819  0.2944060335314995   T   T   T
 -0.0028344022161566  0.6239624309813024  0.1991562793277543   T   T   T
  0.1249999999662847  0.8749999999714717  0.1074400022508328   F   F   F
  0.1248608658855288  0.8734912414352698  0.2943153593629171   T   T   T
  0.1244337387993467  0.7512754369665281  0.1967852662907585   T   T   T
  0.2500000000017266  0.5000000000034603  0.1074400022508328   F   F   F
  0.2475172541463081  0.5128353107403097  0.2991989060849831   T   T   T
  0.2488087965420347  0.6242287915599085  0.1981010428002859   T   T   T
  0.3749999999680114  0.8749999999714717  0.1074400022508328   F   F   F
  0.3627800764341453  0.8669296912852529  0.3038757724523212   T   T   T
  0.3730200099270478  0.7524451153463793  0.1963740712626274   T   T   T
  0.5000000000034603  0.5000000000034603  0.1074400022508328   F   F   F
  0.4779929649062482  0.5067311511402250  0.3152371167620898   T   T   T
  0.4994007442816403  0.6214077012831841  0.2000519303302051   T   T   T
  0.6249999999697451  0.8749999999714717  0.1074400022508328   F   F   F
  0.6319647327896343  0.8869509103680062  0.2948422683232564   T   T   T
  0.6257396990670110  0.7502320082796157  0.2008825537024313   T   T   T
  0.7500000000051870  0.5000000000034603  0.1074400022508328   F   F   F
  0.7589227984705283  0.4986135017523484  0.2838853481035837   T   T   T
  0.7508267529901758  0.6273770561994158  0.1988724237497425   T   T   T
  0.8749999999714717  0.8749999999714717  0.1074400022508328   F   F   F
  0.8768183432146109  0.8767554672538546  0.2938316722320217   T   T   T
  0.8758252615649753  0.7504603454432288  0.1978867150385637   T   T   T
  0.1249999999662847  0.1249999999662847  0.1074400022508328   F   F   F
  0.1200507141801109  0.1257105490291172  0.2881082265328300   T   T   T
  0.1245194077905988 -0.0011176030999742  0.2001746639318895   T   T   T
  0.0000000000000000  0.2500000000017266  0.1074400022508328   F   F   F
  0.0012557044155875  0.2432712776780851  0.2885560719629067   T   T   T
  0.0022286912063153  0.3751661238281913  0.2033819870571360   T   T   T
  0.3749999999680114  0.1249999999662847  0.1074400022508328   F   F   F
  0.3699211228955874  0.1201295638038965  0.2931938149735391   T   T   T
  0.3758137312049545 -0.0041618175117003  0.2042623412021828   T   T   T
  0.2500000000017266  0.2500000000017266  0.1074400022508328   F   F   F
  0.2383542961298313  0.2316699538146962  0.2969049317762481   T   T   T
  0.2460225440992171  0.3741715888620022  0.1947178498321981   T   T   T
  0.6249999999697451  0.1249999999662847  0.1074400022508328   F   F   F
  0.6250315941766368  0.1228120626502371  0.2961679210108998   T   T   T
  0.6233925307125580  0.0039251563805063  0.1998825916654717   T   T   T
  0.5000000000034603  0.2500000000017266  0.1074400022508328   F   F   F
  0.5012130890523923  0.2568521025336590  0.2986008290239402   T   T   T
  0.5021437093652905  0.3755402257531686  0.1949729509456351   T   T   T
  0.8749999999714717  0.1249999999662847  0.1074400022508328   F   F   F
  0.8830327249058783  0.1273400642361465  0.2887456274038492   T   T   T
  0.8766253120351778  0.0004771326565323  0.1995425806197847   T   T   T
  0.7500000000051870  0.2500000000017266  0.1074400022508328   F   F   F
  0.7649012802055286  0.2332220538538589  0.3007134356703467   T   T   T
  0.7518673369065493  0.3720064855785989  0.1950439440322977   T   T   T
  0.1249999999662847  0.6249999999697451  0.1074400022508328   F   F   F
  0.1199833004756589  0.6315688976458256  0.2884498180569386   T   T   T
  0.1250335694761893  0.4981947044723070  0.2018228831259259   T   T   T
  0.0000000000000000  0.7500000000051870  0.1074400022508328   F   F   F
  0.0015650932421300  0.7472657230955883  0.2897813130999873   T   T   T
 -0.0000190025953455  0.8749356055657235  0.2001304660686989   T   T   T
  0.3749999999680114  0.6249999999697451  0.1074400022508328   F   F   F
  0.3708375436133459  0.6404412198299331  0.2942457213843906   T   T   T
  0.3748767152280076  0.5062651664049966  0.1962049537017977   T   T   T
  0.2500000000017266  0.7500000000051870  0.1074400022508328   F   F   F
  0.2431984500382664  0.7436199547854123  0.2896445144574115   T   T   T
  0.2496185089622158  0.8753227408438164  0.2008808509729490   T   T   T
  0.6249999999697451  0.6249999999697451  0.1074400022508328   F   F   F
  0.6224308955848457  0.6193366085137761  0.2925358787611250   T   T   T
  0.6239427116934394  0.5026314841063553  0.1962428306528806   T   T   T
  0.5000000000034603  0.7500000000051870  0.1074400022508328   F   F   F
  0.4951052744935411  0.7455696084522360  0.2852583090939834   T   T   T
  0.5002026472999441  0.8774924193634396  0.1992197894807689   T   T   T
  0.8749999999714717  0.6249999999697451  0.1074400022508328   F   F   F
  0.8767496461474500  0.6431992878948862  0.3090644648129598   T   T   T
  0.8782647918242124  0.4983329779331505  0.1965026306096945   T   T   T
  0.7500000000051870  0.7500000000051870  0.1074400022508328   F   F   F
  0.7555883733080296  0.7575686351537542  0.2909100556693384   T   T   T
  0.7501337250878319  0.8773321309933383  0.1993105287704903   T   T   T
  0.4463684414263119  0.3351752779086807  0.3992864879080890   T   T   T
  0.3993941593436889  0.4196083974293136  0.3811276497979675   T   T   T
  0.5466254199411752  0.3320645393072906  0.4021344443260836   T   T   T
  0.6016736664633950  0.4187115039561204  0.4048380185682092   T   T   T
  0.3975331902909712  0.6535483954074163  0.3939202025681945   T   T   T
  0.4788655979977050  0.7181355463085609  0.3931631125847962   T   T   T
  0.4544778277320146  0.8118340088410996  0.3707306358965769   T   T   T
  0.5247446767191550  0.8811594553872573  0.3737856943839942   T   T   T
  0.5614524394622106  0.5089465250021077  0.3979831722960498   T   T   T
  0.6129577080612202  0.5940179849826202  0.4046996822054812   T   T   T
  0.5757910648481380  0.6905044115976298  0.4060128380087750   T   T   T
  0.6421116341114883  0.7685946128028751  0.4087875060343903   T   T   T
  0.6103408886242784  0.8598149405007840  0.3991381522091553   T   T   T
  0.7034233201509218  0.4117041940122816  0.3973805734359024   T   T   T
  0.7559655005299850  0.4928640187171713  0.3880832709976013   T   T   T
  0.7149325883237705  0.5812946118640152  0.3945173255308267   T   T   T
  0.7712867893403048  0.6623743546220712  0.3769341606571746   T   T   T
  0.7349329713089325  0.7476276021681666  0.3884449130060565   T   T   T
  0.2970276753962116  0.2574362140461837  0.3832119861781147   T   T   T
  0.2540178503070677  0.3394139651320291  0.3670735667533348   T   T   T
  0.3043666730064725  0.4268671246324028  0.3671127009512113   T   T   T
  0.3934358880540995  0.2476289886922775  0.3960301574368601   T   T   T
  0.4414431804458753  0.1638278359608898  0.3723246707564384   T   T   T
  0.5386733003975305  0.1592907041129216  0.3733946120331144   T   T   T
  0.5900105601657952  0.2412048109654117  0.3946798425673139   T   T   T
  0.6878744128903572  0.2436973736239977  0.3811505816966496   T   T   T
  0.7385904564330684  0.3210559454827357  0.3790383515888016   T   T   T
  0.3570050571698408  0.6213844009947054  0.4450799121820528   T   T   T
 
