 Cu   Co   C    H                       
1.0
       14.4588003159         0.0000000000         0.0000000000
        0.0000000000        14.4588003159         0.0000000000
        0.0000000000         0.0000000000        18.6147003174
   Cu   Co    C    H
   48   48   28    4
Direct
     0.000000000         0.000000000         0.107440002
     0.001391176         0.996082246         0.294574201
     0.000598392         0.123477377         0.195644557
     0.125000000         0.375000000         0.107440002
     0.131405115         0.367080331         0.302373588
     0.125379562         0.250085324         0.198165193
     0.250000000         0.000000000         0.107440002
     0.247727960         0.999976516         0.294805467
     0.249325827         0.122573018         0.197654635
     0.375000000         0.375000000         0.107440002
     0.374309540         0.377281189         0.276630223
     0.373853832         0.245593131         0.200138390
     0.500000000         0.000000000         0.107440002
     0.499799550         0.995164752         0.308778942
     0.499424666         0.124885060         0.202866241
     0.625000000         0.375000000         0.107440002
     0.625074625         0.381884784         0.287227571
     0.626312494         0.248232201         0.202428043
     0.750000000         0.000000000         0.107440002
     0.756099820         0.006409548         0.293884903
     0.750719786         0.125937819         0.199466780
     0.875000000         0.375000000         0.107440002
     0.875193477         0.371593267         0.298812211
     0.874543130         0.251049995         0.198992476
     0.000000000         0.500000000         0.107440002
     0.002148422         0.498519003         0.294654578
     0.997237623         0.623913825         0.198865741
     0.125000000         0.875000000         0.107440002
     0.126561090         0.871451139         0.294430554
     0.126784578         0.751322150         0.198074341
     0.250000000         0.500000000         0.107440002
     0.243758753         0.505718231         0.297411710
     0.247144684         0.624345660         0.197719678
     0.375000000         0.875000000         0.107440002
     0.368846864         0.867983699         0.304241657
     0.374132246         0.751100302         0.198477373
     0.500000000         0.500000000         0.107440002
     0.478979737         0.504335344         0.316696465
     0.499094278         0.620613217         0.199755386
     0.625000000         0.875000000         0.107440002
     0.634005427         0.886524200         0.294304579
     0.623389363         0.749116778         0.203035876
     0.750000000         0.500000000         0.107440002
     0.758525610         0.498674810         0.285558432
     0.749688745         0.626801014         0.199427009
     0.875000000         0.875000000         0.107440002
     0.876143038         0.875376701         0.293881267
     0.875430584         0.749888003         0.198153108
     0.125000000         0.125000000         0.107440002
     0.118065812         0.123798043         0.288499922
     0.124727152         0.997735798         0.200417444
     0.000000000         0.250000000         0.107440002
     0.000598054         0.242931217         0.288742691
     0.001650551         0.374432206         0.203128591
     0.375000000         0.125000000         0.107440002
     0.369913936         0.118997969         0.293134421
     0.376645923         0.995166481         0.204815134
     0.250000000         0.250000000         0.107440002
     0.236639574         0.227528051         0.299080253
     0.245872825         0.373883903         0.194538966
     0.625000000         0.125000000         0.107440002
     0.625871122         0.122744635         0.296857476
     0.623573840         0.003944854         0.200057060
     0.500000000         0.250000000         0.107440002
     0.501002729         0.255812109         0.299412936
     0.502479196         0.374620050         0.195271820
     0.875000000         0.125000000         0.107440002
     0.885316730         0.125082999         0.289087862
     0.877002060         0.999495864         0.199679807
     0.750000000         0.250000000         0.107440002
     0.767787695         0.230029300         0.303886563
     0.751549602         0.372702211         0.195514441
     0.125000000         0.625000000         0.107440002
     0.118780203         0.630452812         0.288381010
     0.124159455         0.497515231         0.201447561
     0.000000000         0.750000000         0.107440002
     0.002151122         0.747278929         0.289629966
     0.000349216         0.873795629         0.199918523
     0.375000000         0.625000000         0.107440002
     0.365127444         0.630628049         0.290793002
     0.374562114         0.505743980         0.196305096
     0.250000000         0.750000000         0.107440002
     0.246188954         0.739696145         0.295877755
     0.251262039         0.873958707         0.201508999
     0.625000000         0.625000000         0.107440002
     0.619203210         0.617407858         0.295121014
     0.624065518         0.502096713         0.197049797
     0.500000000         0.750000000         0.107440002
     0.490355402         0.733966827         0.292777210
     0.500401795         0.876389265         0.199872479
     0.875000000         0.625000000         0.107440002
     0.878434896         0.642024577         0.309392273
     0.877782702         0.498271346         0.197021767
     0.750000000         0.750000000         0.107440002
     0.755473256         0.754915237         0.291752398
     0.750081956         0.875934482         0.199097604
     0.444898039         0.332269996         0.399765283
     0.397279650         0.416580647         0.380877852
     0.545476317         0.329505563         0.402839631
     0.601338148         0.416029125         0.406179816
     0.737803817         0.317095339         0.381172866
     0.480129659         0.719298422         0.402416140
     0.460053712         0.811522067         0.374494344
     0.530580997         0.879626691         0.372745812
     0.562592745         0.507288933         0.399858683
     0.614935756         0.592031777         0.407023400
     0.578394055         0.689830363         0.408358127
     0.646517992         0.766674757         0.408403575
     0.616291344         0.858496010         0.398744226
     0.703070104         0.407822579         0.399151802
     0.756468773         0.488543212         0.389906019
     0.717016041         0.577639699         0.396693468
     0.774403870         0.658040166         0.378506929
     0.739280164         0.743908167         0.389366835
     0.295783341         0.252988368         0.385840237
     0.252231359         0.334058195         0.369206756
     0.301499128         0.421825051         0.367189527
     0.392362326         0.244264796         0.397549838
     0.440660417         0.161088482         0.372954309
     0.537685871         0.156737834         0.373720139
     0.588950515         0.238381118         0.395533085
     0.686942101         0.239917070         0.382638425
     0.400315046         0.663953424         0.432877898
     0.310741037         0.666251779         0.388010144
     0.386473835         0.691809535         0.487375885
     0.420502752         0.591309071         0.440221250
     0.261895627         0.615568519         0.410156369
     0.276388913         0.736594141         0.394548297
