CONTCAR-CH3-CH3                
   1.00000000000000     
    14.4588000000000001    0.0000000000000000    0.0000000000000000
     0.0000000000000000   14.4588000000000001    0.0000000000000000
     0.0000000000000000    0.0000000000000000   18.6146999999999991
   H    C    Co   Cu
     6    28    48    48
Selective dynamics
Direct
  0.2095565227365483  0.7642306722105943  0.4240957271659411   T   T   T
  0.1436955095838286  0.6611680936746538  0.4343039622657514   T   T   T
  0.3140789462413167  0.6239037202909472  0.4408098092582122   T   T   T
  0.2624080858529823  0.6013201747391435  0.5251811860245468   T   T   T
  0.3289875245106302  0.7038217717900821  0.5121755108393273   T   T   T
  0.1545651659129206  0.7398888980452298  0.5070904922056840   T   T   T
  0.5372214269260596  0.6308038871424699  0.3915064329922373   F   F   F
  0.7406661707406315  0.2533965164591194  0.3886391544222008   F   F   F
  0.8197139846711252  0.5866144169468086  0.3798606930278865   F   F   F
  0.4963116236227805  0.7161102092103349  0.3741737317578639   F   F   F
  0.3878720460793019  0.2287361305377971  0.3951215857516175   F   F   F
  0.4270549856608241  0.1429935056111376  0.3675475292618486   F   F   F
  0.6208079636798942  0.3667570543056868  0.4115699491145577   F   F   F
  0.2934395491847184  0.2491610391239973  0.3805581587513558   F   F   F
  0.7649578768985563  0.5080638228857381  0.4013883289333720   F   F   F
  0.4502421335382678  0.3079402441091545  0.4051577870429739   F   F   F
  0.7908275733062666  0.6758120980599145  0.3782870257415212   F   F   F
  0.6805060806475183  0.1836202781940202  0.3832424416213271   F   F   F
  0.7208683078986908  0.3465049718866027  0.4017894923512557   F   F   F
  0.5220918759554181  0.1254514660897925  0.3680103516133002   F   F   F
  0.1923825376196149  0.7078608779625455  0.4621946325705011   T   T   T
  0.4086155951269532  0.3985452642549703  0.3959841866788949   F   F   F
  0.5510176435046645  0.2914127405357121  0.4065354664224259   F   F   F
  0.2788020572696439  0.6568727760656117  0.4860697122377646   T   T   T
  0.7898770341274641  0.4146312568412611  0.3867985733597479   F   F   F
  0.6972309906792233  0.7027954351979417  0.3967904240618054   F   F   F
  0.2556366639113108  0.3342066546823901  0.3664986625790689   F   F   F
  0.5831271289176811  0.1963174589827190  0.3949631033627909   F   F   F
  0.6674441666611841  0.5301106368592912  0.4138626305441804   F   F   F
  0.6345748847700605  0.6237520709112090  0.4060278167900719   F   F   F
  0.6546798055621679  0.7873574971558028  0.3749241091106228   F   F   F
  0.5598909685992339  0.7919131850034091  0.3675329787417994   F   F   F
  0.5970809188096027  0.4609446421166723  0.4147119802176533   F   F   F
  0.3165683047650276  0.4140475125435472  0.3739314253030344   F   F   F
  0.3750000000000000  0.1250000000000000  0.1074399999999969   F   F   F
  0.3593145116109113  0.1195169002442995  0.2853922612163942   F   F   F
  0.0036015005783767  0.2463949653438533  0.2893610498469599   F   F   F
  0.9989819462002885  0.3767029615231365  0.2052141805524101   F   F   F
  0.1228921043656541  0.9971434623981423  0.1994637924151945   F   F   F
  0.0000000000000000  0.2500000000000000  0.1074399999999969   F   F   F
  0.1250000000000000  0.1250000000000000  0.1074399999999969   F   F   F
  0.1133988023227417  0.1230225558810005  0.2875759927004111   F   F   F
  0.3725771769994211  0.9997649060997773  0.1998444285836882   F   F   F
  0.6265250406430880  0.1107227571664140  0.2954926367431057   F   F   F
  0.6250000000000000  0.1250000000000000  0.1074399999999969   F   F   F
  0.2516334146260846  0.3776050021575799  0.2000976338138472   F   F   F
  0.8807781301495083  0.9980724306326891  0.2001098087600468   F   F   F
  0.5030914076356012  0.3719336340032058  0.1911500050569828   F   F   F
  0.4972645548967947  0.2433103824104919  0.3043284940969357   F   F   F
  0.5000000000000000  0.2500000000000000  0.1074399999999969   F   F   F
  0.6244388421652687  0.9993964516187575  0.2010638226772343   F   F   F
  0.3750000000000000  0.6250000000000000  0.1074399999999969   F   F   F
  0.8750000000000000  0.1250000000000000  0.1074399999999969   F   F   F
  0.2308074472409345  0.2296738111468457  0.2954068124981077   F   F   F
  0.2500000000000000  0.2500000000000000  0.1074399999999969   F   F   F
  0.3880718429006365  0.6682172153244608  0.3165660241239578   F   F   F
  0.3754708561458742  0.5021074760572830  0.1924387196437181   F   F   F
  0.2500000000000000  0.7500000000000000  0.1074399999999969   F   F   F
  0.2480948919319985  0.7427854867481045  0.2917214197303508   F   F   F
  0.6075501209441896  0.6167871747855500  0.2910474340395339   F   F   F
  0.6232634992779680  0.5032904451945157  0.1966713840164687   F   F   F
  0.5000000000000000  0.7500000000000000  0.1074399999999969   F   F   F
  0.5034164696351198  0.7670990995266891  0.2771700537901864   F   F   F
  0.9077052769678389  0.1157360687985474  0.2940463578296217   F   F   F
  0.8818490653667794  0.6408488951441242  0.3020607368780972   F   F   F
  0.6250000000000000  0.6250000000000000  0.1074399999999969   F   F   F
  0.2488114228615856  0.8732534045381755  0.1988247384327266   F   F   F
  0.7500000000000000  0.7500000000000000  0.1074399999999969   F   F   F
  0.7442865004209978  0.7559314499803733  0.2945261114646129   F   F   F
  0.8750000000000000  0.6250000000000000  0.1074399999999969   F   F   F
  0.7485731600431151  0.8765252895065814  0.2009198280517523   F   F   F
  0.8770310266912915  0.4976985182876490  0.1996862110195039   F   F   F
  0.5008300036263691  0.8850225551602620  0.1980919099422636   F   F   F
  0.0000000000000000  0.7500000000000000  0.1074399999999969   F   F   F
  0.7500000000000000  0.2500000000000000  0.1074399999999969   F   F   F
  0.1281634541781287  0.4966130742286339  0.2053855004678766   F   F   F
  0.7485393115802594  0.3757945425503308  0.1963523500688353   F   F   F
  0.0055261856661204  0.7455432176639150  0.2894885665039766   F   F   F
  0.0014225133084764  0.8714161085173586  0.1989709594125841   F   F   F
  0.7775934709091104  0.1845346126168366  0.3108641330085717   F   F   F
  0.1266764382405228  0.6266184143341746  0.2888943010052785   F   F   F
  0.1250000000000000  0.6250000000000000  0.1074399999999969   F   F   F
  0.8765939116110530  0.8705469857205230  0.2929751324843792   F   F   F
  0.7620483403639398  0.0056854028256339  0.2931192734620183   F   F   F
  0.1261959819589364  0.7480212550502259  0.1972679505992687   F   F   F
  0.7503232119439076  0.1232993494718855  0.1953033264903183   F   F   F
  0.5000000000000000  0.0000000000000000  0.1074399999999969   F   F   F
  0.3750000000000000  0.3750000000000000  0.1074399999999969   F   F   F
  0.6043336902521190  0.3887476204532518  0.2924260773389520   F   F   F
  0.4931348841887981  0.0046976051891505  0.3001032748755534   F   F   F
  0.2434681255145676  0.9995285108632288  0.2933705474773447   F   F   F
  0.1298786474008295  0.8676604947531246  0.2939937800000862   F   F   F
  0.2437764075849387  0.1242826799483154  0.1951455348818030   F   F   F
  0.6250000000000000  0.8750000000000000  0.1074399999999969   F   F   F
  0.3742278459736212  0.2517756837364900  0.2026755277852246   F   F   F
  0.4017666862128948  0.3945338405634118  0.2858056496276618   F   F   F
  0.4997624098464897  0.1274314320710204  0.2000438806477121   F   F   F
  0.7500000000000000  0.0000000000000000  0.1074399999999969   F   F   F
  0.6270399648438811  0.2487596312719802  0.2063784319107214   F   F   F
  0.0000000000000000  0.0000000000000000  0.1074399999999969   F   F   F
  0.1250000000000000  0.8750000000000000  0.1074399999999969   F   F   F
  0.9997160515734365  0.5037082229553818  0.2963473792754741   F   F   F
  0.9983409892734443  0.6233866617993016  0.1991136218567604   F   F   F
  0.8703923718034901  0.2506435541682208  0.2055304935969033   F   F   F
  0.0000000000000000  0.5000000000000000  0.1074399999999969   F   F   F
  0.8750000000000000  0.3750000000000000  0.1074399999999969   F   F   F
  0.8774479196737843  0.3735644007655239  0.3088469528181221   F   F   F
  0.2500000000000000  0.0000000000000000  0.1074399999999969   F   F   F
  0.0071849815394529  0.9847266450051180  0.2978269187307134   F   F   F
  0.1240512655211674  0.2542186478363533  0.1970291409232061   F   F   F
  0.2751462614062348  0.5186832764951035  0.3089166525119680   F   F   F
  0.2500000000000000  0.5000000000000000  0.1074399999999969   F   F   F
  0.3750000000000000  0.8750000000000000  0.1074399999999969   F   F   F
  0.2540828688815395  0.6216409366466635  0.2016113143269465   F   F   F
  0.3721031942180559  0.7494563018515947  0.1974691078498623   F   F   F
  0.3688891777504892  0.8739676816240305  0.2922195361295223   F   F   F
  0.4751287789174228  0.5128704018485308  0.3888462592460087   F   F   F
  0.5000000000000000  0.5000000000000000  0.1074399999999969   F   F   F
  0.0010964346325082  0.1257286551507875  0.1928042530168526   F   F   F
  0.4940665377241942  0.6248774714261032  0.2001682407288214   F   F   F
  0.1370333903597327  0.3745018594479603  0.3044099360258272   F   F   F
  0.8750000000000000  0.8750000000000000  0.1074399999999969   F   F   F
  0.6250000000000000  0.3750000000000000  0.1074399999999969   F   F   F
  0.8735880761585690  0.7496426958583200  0.1992538983013787   F   F   F
  0.7510860494289773  0.4977519160190624  0.2875033998948311   F   F   F
  0.7507847702077157  0.6265820908054494  0.2022608161162296   F   F   F
  0.1250000000000000  0.3750000000000000  0.1074399999999969   F   F   F
  0.6286236103719389  0.8917803978393408  0.3045184443184965   F   F   F
  0.6280035130288013  0.7493570799475151  0.1968685247513946   F   F   F
  0.7500000000000000  0.5000000000000000  0.1074399999999969   F   F   F
 
