CONTCAR-CH2-CH           
   1.00000000000000     
    14.4588003158999996    0.0000000000000000    0.0000000000000000
     0.0000000000000000   14.4588003158999996    0.0000000000000000
     0.0000000000000000    0.0000000000000000   18.6147003174000005
   Cu   Co   C    H 
    48    48    28     3
Selective dynamics
Direct
  0.0000000000000000  0.0000000000000000  0.1074400022508328   F   F   F
  0.0016031520098281  0.9944066735057220  0.2950557825892304   F   F   F
  0.0012951383618756  0.1235356516470318  0.1952078897190646   F   F   F
  0.1249999999662847  0.3749999999680114  0.1074400022508328   F   F   F
  0.1330014584477723  0.3681409396861710  0.3027218634767195   F   F   F
  0.1243715643203132  0.2504743505875453  0.1980260875002244   F   F   F
  0.2500000000017266  0.0000000000000000  0.1074400022508328   F   F   F
  0.2486572930863531  0.9990784827804475  0.2954568348154538   F   F   F
  0.2481786033917004  0.1218702792973332  0.1968002861775204   F   F   F
  0.3749999999680114  0.3749999999680114  0.1074400022508328   F   F   F
  0.3744955572807811  0.3759810728730031  0.2754284155824038   F   F   F
  0.3738030317350862  0.2451163987532397  0.1991070399599408   F   F   F
  0.5000000000034603  0.0000000000000000  0.1074400022508328   F   F   F
  0.5023653073401206  0.9953171346497882  0.3093975823656194   F   F   F
  0.4998035620806789  0.1247246200620822  0.2021886515169271   F   F   F
  0.6249999999697451  0.3749999999680114  0.1074400022508328   F   F   F
  0.6236855263533982  0.3812371199131164  0.2856229746168850   F   F   F
  0.6268662136285812  0.2477438027096071  0.2021759230348295   F   F   F
  0.7500000000051870  0.0000000000000000  0.1074400022508328   F   F   F
  0.7581984826173098  0.0060935428226259  0.2931949503750673   F   F   F
  0.7515305474362748  0.1249846308695552  0.1981658701693760   F   F   F
  0.8749999999714717  0.3749999999680114  0.1074400022508328   F   F   F
  0.8714199361147195  0.3802221175404696  0.3059499471452369   F   F   F
  0.8743496419806789  0.2527055496449790  0.1998791535695901   F   F   F
  0.0000000000000000  0.5000000000034603  0.1074400022508328   F   F   F
  0.0047987296378054  0.4974832298784762  0.2953170981831832   F   F   F
  0.9988701134819351  0.6241937271630960  0.1986736994226703   F   F   F
  0.1249999999662847  0.8749999999714717  0.1074400022508328   F   F   F
  0.1275279942573917  0.8728186160063771  0.2971824379029115   F   F   F
  0.1252767938395394  0.7504265417856146  0.1948918283090890   F   F   F
  0.2500000000017266  0.5000000000034603  0.1074400022508328   F   F   F
  0.2490182105380256  0.5105300739834391  0.3001190181295286   F   F   F
  0.2492141649142852  0.6237402107389656  0.1986054195782927   F   F   F
  0.3749999999680114  0.8749999999714717  0.1074400022508328   F   F   F
  0.3724134387852729  0.8629786517269906  0.3072775907199414   F   F   F
  0.3726068269359786  0.7515950022949909  0.1966314513921290   F   F   F
  0.5000000000034603  0.5000000000034603  0.1074400022508328   F   F   F
  0.4831701173407268  0.4999678454042211  0.3131154236904905   F   F   F
  0.4980935700615419  0.6210086639179337  0.1975952705656709   F   F   F
  0.6249999999697451  0.8749999999714717  0.1074400022508328   F   F   F
  0.6352334164420483  0.8885467912791043  0.2898410650553274   F   F   F
  0.6252736762625872  0.7504424769301323  0.1991854372839086   F   F   F
  0.7500000000051870  0.5000000000034603  0.1074400022508328   F   F   F
  0.7536355128497831  0.5026323890730353  0.2836946491817400   F   F   F
  0.7503435020166407  0.6287025737127294  0.1990787535957992   F   F   F
  0.8749999999714717  0.8749999999714717  0.1074400022508328   F   F   F
  0.8759522896899412  0.8719217282456029  0.2942872050172127   F   F   F
  0.8746043654569817  0.7496779605744024  0.1997686596158772   F   F   F
  0.1249999999662847  0.1249999999662847  0.1074400022508328   F   F   F
  0.1180184139157419  0.1238608209201644  0.2882843336896315   F   F   F
  0.1246906970471144  0.9964046471540939  0.2013542869559046   F   F   F
  0.0000000000000000  0.2500000000017266  0.1074400022508328   F   F   F
  0.9991919266295497  0.2445148041938907  0.2888152036202314   F   F   F
  0.0005985675345599  0.3750870251441967  0.2037861818508446   F   F   F
  0.3749999999680114  0.1249999999662847  0.1074400022508328   F   F   F
  0.3681110630299216  0.1178273428178613  0.2896786981206958   F   F   F
  0.3769066306883317  0.9933916488517340  0.2054095999921728   F   F   F
  0.2500000000017266  0.2500000000017266  0.1074400022508328   F   F   F
  0.2368806386141742  0.2289508880077804  0.2966648645225689   F   F   F
  0.2458807032040724  0.3735816813333059  0.1944813467078035   F   F   F
  0.6249999999697451  0.1249999999662847  0.1074400022508328   F   F   F
  0.6276678291627888  0.1221429426176996  0.2970755445713067   F   F   F
  0.6239372251355633  0.0057166680089722  0.1990384775632776   F   F   F
  0.5000000000034603  0.2500000000017266  0.1074400022508328   F   F   F
  0.4994306874711754  0.2526239353029496  0.2992421521240374   F   F   F
  0.5021565977434364  0.3736643316773112  0.1941194635026662   F   F   F
  0.8749999999714717  0.1249999999662847  0.1074400022508328   F   F   F
  0.8885706196387702  0.1231134347894169  0.2882122483012424   F   F   F
  0.8778909148365770  0.9983576502035021  0.1996840047372146   F   F   F
  0.7500000000051870  0.2500000000017266  0.1074400022508328   F   F   F
  0.7717961444085049  0.2235041579356292  0.3030181276246893   F   F   F
  0.7518917295905112  0.3736433484863255  0.1956008326340282   F   F   F
  0.1249999999662847  0.6249999999697451  0.1074400022508328   F   F   F
  0.1217042048646704  0.6255136184133079  0.2881168807368155   F   F   F
  0.1261295628232020  0.4956402160272972  0.2014499405917576   F   F   F
  0.0000000000000000  0.7500000000051870  0.1074400022508328   F   F   F
  0.0073035286475118  0.7491590895131139  0.2919893021622215   F   F   F
  0.0000668551623164  0.8738131333184143  0.1997645237072447   F   F   F
  0.3749999999680114  0.6249999999697451  0.1074400022508328   F   F   F
  0.3725981427220546  0.6372086430639854  0.2944050203991750   F   F   F
  0.3746301464851243  0.5064089030527512  0.1968901352533905   F   F   F
  0.2500000000017266  0.7500000000051870  0.1074400022508328   F   F   F
  0.2436597309068702  0.7441915508369803  0.2908373171781307   F   F   F
  0.2520877374823982  0.8751467890458429  0.2017438977589663   F   F   F
  0.6249999999697451  0.6249999999697451  0.1074400022508328   F   F   F
  0.6158898849701941  0.6232062938040315  0.2909659931462230   F   F   F
  0.6232001485663332  0.5027909691356882  0.1956393125857190   F   F   F
  0.5000000000034603  0.7500000000051870  0.1074400022508328   F   F   F
  0.4944696608133299  0.7429635691223098  0.2840129125639805   F   F   F
  0.4998346411589552  0.8774534394424762  0.1999578615371149   F   F   F
  0.8749999999714717  0.6249999999697451  0.1074400022508328   F   F   F
  0.8887821814118269  0.6399984161464829  0.3077814210183263   F   F   F
  0.8781813482788721  0.4981007001305926  0.1977322205205070   F   F   F
  0.7500000000051870  0.7500000000051870  0.1074400022508328   F   F   F
  0.7478037163362217  0.7530006379305121  0.2952589579073077   F   F   F
  0.7519497373834767  0.8755388264630497  0.1979465934050353   F   F   F
  0.4472359002481525  0.3271391107078188  0.3971489411820315   F   F   F
  0.4025147157023810  0.4131898040960138  0.3792878939963913   F   F   F
  0.5475532928354738  0.3200149025363856  0.3994105447406753   F   F   F
  0.6070512378015778  0.4040086300024583  0.4022286049706310   F   F   F
  0.7382621240844429  0.2992883530102048  0.3818330593820036   F   F   F
  0.4949631395247707  0.7070398928919062  0.3921179326180493   F   F   F
  0.4734158199753793  0.8046163345386219  0.3731911046289724   F   F   F
  0.5478320272287007  0.8673013015392357  0.3723860929337519   F   F   F
  0.5727266067693577  0.4963108847744380  0.3928297314018607   F   F   F
  0.6297944517961724  0.5774761922205798  0.3996122723298754   F   F   F
  0.5945992667227742  0.6753858184095094  0.3966572873288783   F   F   F
  0.6656484016553321  0.7512552072393248  0.3987881509876630   F   F   F
  0.6356710932099077  0.8444623741728208  0.3908956244577482   F   F   F
  0.7078225835044023  0.3911581091973133  0.3974777891988168   F   F   F
  0.7683740656900326  0.4671784950576168  0.3871980931373784   F   F   F
  0.7332458974233020  0.5586850515553010  0.3944346785953314   F   F   F
  0.7933427841759624  0.6386151615346805  0.3808238974651275   F   F   F
  0.7605421899365368  0.7251610240535342  0.3919028114729031   F   F   F
  0.2947060002921305  0.2544185916784869  0.3835105014411369   F   F   F
  0.2533700882334173  0.3372887739142811  0.3674387008806832   F   F   F
  0.3071664228690452  0.4232716947809863  0.3669858325888526   F   F   F
  0.3908644283214144  0.2415946576773536  0.3949479872366268   F   F   F
  0.4360310995431576  0.1567015023053671  0.3703514482041896   F   F   F
  0.5326306979744473  0.1478677192908435  0.3714850837376815   F   F   F
  0.5873298996753746  0.2269686734787442  0.3931613610230897   F   F   F
  0.6854038488210321  0.2233005181346002  0.3805365582162210   F   F   F
  0.4139181194362394  0.6476771472954752  0.3987394535479254   T   T   T
  0.1255599195225443  0.7421056876014092  0.3394803403937630   T   T   T
  0.3526841255069968  0.6852220677589145  0.4179775609332310   T   T   T
  0.4227151902787725  0.5800132844725852  0.4239062845335582   T   T   T
  0.1266819516933566  0.7376921544214171  0.3982748384909964   T   T   T
 
