CONTCAR-CH2CO                                  
   1.00000000000000     
    14.4588003158999996    0.0000000000000000    0.0000000000000000
     0.0000000000000000   14.4588003158999996    0.0000000000000000
     0.0000000000000000    0.0000000000000000   18.6147003174000005
   Cu   Co   C    H    O 
    48    48    28     2     1
Selective dynamics
Direct
  0.0000000000000000  0.0000000000000000  0.1074400022508328   F   F   F
  0.0012065420284841  0.9946540935496984  0.2945389950110666   F   F   F
  0.0010278595525506  0.1239519370398909  0.1953670778197178   F   F   F
  0.1249999999662847  0.3749999999680114  0.1074400022508328   F   F   F
  0.1331053679051166  0.3687502240326737  0.3024129825434372   F   F   F
  0.1246225662901637  0.2506011080873520  0.1979191016182114   F   F   F
  0.2500000000017266  0.0000000000000000  0.1074400022508328   F   F   F
  0.2484964949994364  0.9986736123297320  0.2951514629944896   F   F   F
  0.2483165368440012  0.1221154528569315  0.1969588537604565   F   F   F
  0.3749999999680114  0.3749999999680114  0.1074400022508328   F   F   F
  0.3746672078671267  0.3761237089159266  0.2752943638670686   F   F   F
  0.3737705606337940  0.2451513993606653  0.1991543886283722   F   F   F
  0.5000000000034603  0.0000000000000000  0.1074400022508328   F   F   F
  0.5020706977024716  0.9953433787174859  0.3091821012822464   F   F   F
  0.4995724448509975  0.1247838499216769  0.2022771850936422   F   F   F
  0.6249999999697451  0.3749999999680114  0.1074400022508328   F   F   F
  0.6235121065477713  0.3812465682938679  0.2854673450377305   F   F   F
  0.6267149429216019  0.2477969759714682  0.2020039660722617   F   F   F
  0.7500000000051870  0.0000000000000000  0.1074400022508328   F   F   F
  0.7577215223477864  0.0065971899559756  0.2930964029206251   F   F   F
  0.7515033439409251  0.1252244163069349  0.1980968446114844   F   F   F
  0.8749999999714717  0.3749999999680114  0.1074400022508328   F   F   F
  0.8725365788790072  0.3806558434957736  0.3055404997263338   F   F   F
  0.8748220058939182  0.2529465254684737  0.1996495934158702   F   F   F
  0.0000000000000000  0.5000000000034603  0.1074400022508328   F   F   F
  0.0061420841371032  0.4987961436934825  0.2954805130108724   F   F   F
  0.9997913815492083  0.6237165920136079  0.1982445573184251   F   F   F
  0.1249999999662847  0.8749999999714717  0.1074400022508328   F   F   F
  0.1269748069176515  0.8732364837424669  0.2935502328462931   F   F   F
  0.1257942911176002  0.7511360953674711  0.1964711374823906   F   F   F
  0.2500000000017266  0.5000000000034603  0.1074400022508328   F   F   F
  0.2483223368688172  0.5101811182184903  0.2994450052923909   F   F   F
  0.2490031717870806  0.6237774644312637  0.1980343939608034   F   F   F
  0.3749999999680114  0.8749999999714717  0.1074400022508328   F   F   F
  0.3714495047509416  0.8625530357486255  0.3073161376065698   F   F   F
  0.3718234526252360  0.7514992893720063  0.1971284843815013   F   F   F
  0.5000000000034603  0.5000000000034603  0.1074400022508328   F   F   F
  0.4833396072525673  0.5004302382621191  0.3131534687253890   F   F   F
  0.4980528724301081  0.6208425049513480  0.1979311586997099   F   F   F
  0.6249999999697451  0.8749999999714717  0.1074400022508328   F   F   F
  0.6350502452447486  0.8886030434538839  0.2898629625799245   F   F   F
  0.6250898125311650  0.7503805786340934  0.1990455196233540   F   F   F
  0.7500000000051870  0.5000000000034603  0.1074400022508328   F   F   F
  0.7530719286634522  0.5018781084069275  0.2833707230055964   F   F   F
  0.7501748160394328  0.6284909108146479  0.1990143775112614   F   F   F
  0.8749999999714717  0.8749999999714717  0.1074400022508328   F   F   F
  0.8745972392917878  0.8732425648161168  0.2942547432332105   F   F   F
  0.8737839042092546  0.7496869235041146  0.1995505880275061   F   F   F
  0.1249999999662847  0.1249999999662847  0.1074400022508328   F   F   F
  0.1178075622148285  0.1243444303812069  0.2884296077304356   F   F   F
  0.1244582242361361  0.9978625297484669  0.2003298594070984   F   F   F
  0.0000000000000000  0.2500000000017266  0.1074400022508328   F   F   F
  0.9995993186408398  0.2452622556257325  0.2888070598167047   F   F   F
  0.0010895976510525  0.3755407784277267  0.2039834446705200   F   F   F
  0.3749999999680114  0.1249999999662847  0.1074400022508328   F   F   F
  0.3680801845308750  0.1179868439519822  0.2902056012871554   F   F   F
  0.3768253608446699  0.9934800095686356  0.2053796408745043   F   F   F
  0.2500000000017266  0.2500000000017266  0.1074400022508328   F   F   F
  0.2368191546722827  0.2290933392939181  0.2969463078804253   F   F   F
  0.2458205023908491  0.3740145248514040  0.1945950906612453   F   F   F
  0.6249999999697451  0.1249999999662847  0.1074400022508328   F   F   F
  0.6275038302050149  0.1223957012794585  0.2967160535366489   F   F   F
  0.6238558850741711  0.0058666425957981  0.1989533022725780   F   F   F
  0.5000000000034603  0.2500000000017266  0.1074400022508328   F   F   F
  0.4997393319226546  0.2532106602854682  0.2992015678317301   F   F   F
  0.5021105672763753  0.3737682779186002  0.1940084412289167   F   F   F
  0.8749999999714717  0.1249999999662847  0.1074400022508328   F   F   F
  0.8879633379161689  0.1242818079621344  0.2884602921423252   F   F   F
  0.8775645686648872  0.9988915259105582  0.1995825272679497   F   F   F
  0.7500000000051870  0.2500000000017266  0.1074400022508328   F   F   F
  0.7709283264166018  0.2256471868500043  0.3020703684331281   F   F   F
  0.7519761473327833  0.3731227875553387  0.1956594215904062   F   F   F
  0.1249999999662847  0.6249999999697451  0.1074400022508328   F   F   F
  0.1215227521468663  0.6324224176957287  0.2904626542704563   F   F   F
  0.1257627382569666  0.4973469364385892  0.2012795350735104   F   F   F
  0.0000000000000000  0.7500000000051870  0.1074400022508328   F   F   F
  0.0032638257606195  0.7481820381803814  0.2893952602847989   F   F   F
  0.9996966210586464  0.8732801805308057  0.1997203801933622   F   F   F
  0.3749999999680114  0.6249999999697451  0.1074400022508328   F   F   F
  0.3728080107776250  0.6371636666425289  0.2954017975389363   F   F   F
  0.3744521803534937  0.5066283797848854  0.1968999258954298   F   F   F
  0.2500000000017266  0.7500000000051870  0.1074400022508328   F   F   F
  0.2439318999559958  0.7395198229168258  0.2932982037981731   F   F   F
  0.2520457697472693  0.8747403602487225  0.2015172995035854   F   F   F
  0.6249999999697451  0.6249999999697451  0.1074400022508328   F   F   F
  0.6164353992103102  0.6238511641094462  0.2912546450372986   F   F   F
  0.6230946928377392  0.5029545392157289  0.1955810232763042   F   F   F
  0.5000000000034603  0.7500000000051870  0.1074400022508328   F   F   F
  0.4944446804747002  0.7430997757273374  0.2840360086297764   F   F   F
  0.4996353602901422  0.8771343680485941  0.1999538708007194   F   F   F
  0.8749999999714717  0.6249999999697451  0.1074400022508328   F   F   F
  0.8888407855332972  0.6380978406956430  0.3075902815070322   F   F   F
  0.8784504826758095  0.4985876578731521  0.1978384964711566   F   F   F
  0.7500000000051870  0.7500000000051870  0.1074400022508328   F   F   F
  0.7473346738701423  0.7529987212805267  0.2950453499121082   F   F   F
  0.7514830343920735  0.8757562573061506  0.1977972012026470   F   F   F
  0.4475239802046573  0.3281719329393127  0.3970335590267666   F   F   F
  0.4022667261936874  0.4139464784654052  0.3788878930936690   F   F   F
  0.5479822738546360  0.3216682128231767  0.3993872156643405   F   F   F
  0.6073906477710125  0.4058588743482545  0.4022413644310134   F   F   F
  0.7388796458798410  0.3015339015710126  0.3814673468859198   F   F   F
  0.4954244025784362  0.7086008859807293  0.3922786350102996   F   F   F
  0.4734933783317885  0.8058582007940416  0.3727945802910568   F   F   F
  0.5475415923970388  0.8691034203437482  0.3728040432511222   F   F   F
  0.5729641064923570  0.4981814207829487  0.3930181888909274   F   F   F
  0.6299348880304976  0.5794313938668409  0.3998298595256955   F   F   F
  0.5949595806060444  0.6773578188049854  0.3968169389936662   F   F   F
  0.6657784526777064  0.7533818934258605  0.3990470334978582   F   F   F
  0.6351822679532901  0.8464061339946127  0.3915531926924203   F   F   F
  0.7082466279660906  0.3933824841259224  0.3973374460234425   F   F   F
  0.7685196156948209  0.4696122029804570  0.3871104852804805   F   F   F
  0.7331724355875053  0.5610072057015216  0.3940834045184403   F   F   F
  0.7931747036322179  0.6410754242462033  0.3800772495278650   F   F   F
  0.7608274730601323  0.7277774215937285  0.3918866343940337   F   F   F
  0.2954762539965756  0.2544144813698210  0.3835218736165089   F   F   F
  0.2538663192349233  0.3369755427997063  0.3673794918566884   F   F   F
  0.3067514172347217  0.4232862914547866  0.3665907312677348   F   F   F
  0.3917270283779857  0.2421933526957289  0.3950022468413437   F   F   F
  0.4370966928468292  0.1573441432182321  0.3705716124897691   F   F   F
  0.5337701421007424  0.1492662341068112  0.3716043751779523   F   F   F
  0.5880605570283777  0.2287313234582982  0.3931720644092778   F   F   F
  0.6861397997336312  0.2255557625331974  0.3804825772702145   F   F   F
  0.4149868713136726  0.6487445645369618  0.3995856328217968   T   T   T
  0.1731102531099609  0.6868737646620247  0.3718285812884545   T   T   T
  0.3538789694964208  0.6853939700697964  0.4197692587154123   T   T   T
  0.4250142684360512  0.5810514856471016  0.4244168533808406   T   T   T
  0.1747367468608090  0.6887538053488954  0.4348075152142368   T   T   T
 
