CONTCAR-VA1                                
   1.00000000000000     
    14.4588003158999996    0.0000000000000000    0.0000000000000000
     0.0000000000000000   14.4588003158999996    0.0000000000000000
     0.0000000000000000    0.0000000000000000   18.6147003174000005
   Cu   Co   C 
    48    48    27
Selective dynamics
Direct
  0.0000000000000000  0.0000000000000000  0.1074400022508328   F   F   F
 -0.0010883432977755  0.9960370503940599  0.2946241567136793   T   T   T
 -0.0003699298192113  0.1235924640294590  0.1951441768917850   T   T   T
  0.1249999999662847  0.3749999999680114  0.1074400022508328   F   F   F
  0.1320781444548327  0.3650813894584071  0.3016539722793172   T   T   T
  0.1257982478357432  0.2502508073803861  0.1977549613184175   T   T   T
  0.2500000000017266  0.0000000000000000  0.1074400022508328   F   F   F
  0.2478643956973431  0.0003802641594515  0.2944566919779243   T   T   T
  0.2497055135324573  0.1219090589528545  0.1964573513790576   T   T   T
  0.3749999999680114  0.3749999999680114  0.1074400022508328   F   F   F
  0.3843402211358116  0.3903079309718516  0.2839932651560702   T   T   T
  0.3737350012537510  0.2496833488621323  0.2031287733634154   T   T   T
  0.5000000000034603  0.0000000000000000  0.1074400022508328   F   F   F
  0.5022562710105750  0.9988370855315110  0.3112683755032426   T   T   T
  0.4996150421949515  0.1261357158847140  0.2030752128853573   T   T   T
  0.6249999999697451  0.3749999999680114  0.1074400022508328   F   F   F
  0.6194565808033237  0.3883080535418603  0.2874905599941857   T   T   T
  0.6259259670054476  0.2498225600368675  0.2025531971510134   T   T   T
  0.7500000000051870  0.0000000000000000  0.1074400022508328   F   F   F
  0.7560793842664592  0.0049609585539582  0.2935132285146387   T   T   T
  0.7510278212556109  0.1258442920130477  0.1986297906462818   T   T   T
  0.8749999999714717  0.3749999999680114  0.1074400022508328   F   F   F
  0.8749989934996161  0.3737106799753596  0.2995107659395767   T   T   T
  0.8752201637047727  0.2518763103523675  0.1982380823981107   T   T   T
  0.0000000000000000  0.5000000000034603  0.1074400022508328   F   F   F
  0.0037930301808962  0.4978620796366982  0.2951732072992003   T   T   T
  0.9989946625368071  0.6233906223386577  0.1989701445825968   T   T   T
  0.1249999999662847  0.8749999999714717  0.1074400022508328   F   F   F
  0.1255106778323860  0.8736390026174720  0.2943563019697497   T   T   T
  0.1248289048858302  0.7514126329269383  0.1968075279453584   T   T   T
  0.2500000000017266  0.5000000000034603  0.1074400022508328   F   F   F
  0.2479631049684297  0.5044958037248336  0.3042557776371229   T   T   T
  0.2453702521554537  0.6225010122108540  0.1970064178249981   T   T   T
  0.3749999999680114  0.8749999999714717  0.1074400022508328   F   F   F
  0.3716328049308936  0.8673052299710043  0.3038411319739212   T   T   T
  0.3731949147339736  0.7518891208493577  0.1957703750064840   T   T   T
  0.5000000000034603  0.5000000000034603  0.1074400022508328   F   F   F
  0.4354261428919632  0.5280858044077660  0.3774259451524258   T   T   T
  0.4990158579585530  0.6207922350183296  0.1981266711217781   T   T   T
  0.6249999999697451  0.8749999999714717  0.1074400022508328   F   F   F
  0.6341253657571921  0.8840057483076306  0.2940566440024566   T   T   T
  0.6256947471555359  0.7503090062006621  0.2007612382068894   T   T   T
  0.7500000000051870  0.5000000000034603  0.1074400022508328   F   F   F
  0.7574979972039155  0.4995322324995582  0.2837417479612884   T   T   T
  0.7514378400574612  0.6268477479148112  0.1982601652369139   T   T   T
  0.8749999999714717  0.8749999999714717  0.1074400022508328   F   F   F
  0.8757107868561383  0.8743051219790037  0.2944124780998713   T   T   T
  0.8765974032609060  0.7496206785577566  0.1979763010202290   T   T   T
  0.1249999999662847  0.1249999999662847  0.1074400022508328   F   F   F
  0.1148366722524491  0.1213863065695597  0.2876209116978849   T   T   T
  0.1238729274501576  0.9979317959110485  0.1999998064377835   T   T   T
  0.0000000000000000  0.2500000000017266  0.1074400022508328   F   F   F
  0.0002441352135422  0.2430436569259526  0.2882878065696429   T   T   T
  0.0016739956261374  0.3745981738773710  0.2031971637209951   T   T   T
  0.3749999999680114  0.1249999999662847  0.1074400022508328   F   F   F
  0.3701387958367739  0.1182012218810169  0.2925355973366033   T   T   T
  0.3778644084574351  0.9961014714273420  0.2050682682993811   T   T   T
  0.2500000000017266  0.2500000000017266  0.1074400022508328   F   F   F
  0.2332008175167707  0.2205808274560823  0.2986065607788425   T   T   T
  0.2494297033394515  0.3755216279547863  0.1971277234349406   T   T   T
  0.6249999999697451  0.1249999999662847  0.1074400022508328   F   F   F
  0.6293410894725638  0.1239591116603221  0.2956800043511777   T   T   T
  0.6234726050710768  0.0040122374059965  0.2004055274233906   T   T   T
  0.5000000000034603  0.2500000000017266  0.1074400022508328   F   F   F
  0.5009273055232383  0.2581122515609200  0.2999584069531536   T   T   T
  0.5015695728461492  0.3750483325342538  0.1945187589360515   T   T   T
  0.8749999999714717  0.1249999999662847  0.1074400022508328   F   F   F
  0.8834378919895917  0.1262595875963489  0.2884300790153819   T   T   T
  0.8763765572939055 -0.0008058982736837  0.1994652086964490   T   T   T
  0.7500000000051870  0.2500000000017266  0.1074400022508328   F   F   F
  0.7667774880294211  0.2342931978421698  0.3000978633437987   T   T   T
  0.7511047126006500  0.3724360282019499  0.1958350536544435   T   T   T
  0.1249999999662847  0.6249999999697451  0.1074400022508328   F   F   F
  0.1222493387807002  0.6303372560681535  0.2892131297654877   T   T   T
  0.1259149559173154  0.4958401807124321  0.2032279759230553   T   T   T
  0.0000000000000000  0.7500000000051870  0.1074400022508328   F   F   F
  0.0045559521415291  0.7468824600330319  0.2899278981036884   T   T   T
 -0.0003965944023943  0.8742621716145030  0.1999863354841992   T   T   T
  0.3749999999680114  0.6249999999697451  0.1074400022508328   F   F   F
  0.3617239900802331  0.6332126337700476  0.2879747367484386   T   T   T
  0.3723544916513648  0.5050024897318703  0.1942896883972639   T   T   T
  0.2500000000017266  0.7500000000051870  0.1074400022508328   F   F   F
  0.2450713853140917  0.7448350941168019  0.2885958735894645   T   T   T
  0.2513202498107360  0.8750842905070610  0.2016811361727248   T   T   T
  0.6249999999697451  0.6249999999697451  0.1074400022508328   F   F   F
  0.6219709247393793  0.6206226697029245  0.2904080679650768   T   T   T
  0.6250061384837027  0.5035570962883175  0.1949022404065528   T   T   T
  0.5000000000034603  0.7500000000051870  0.1074400022508328   F   F   F
  0.4936908640433031  0.7438479290297316  0.2846946833677441   T   T   T
  0.5008925131001049  0.8776979152064884  0.1997045035715384   T   T   T
  0.8749999999714717  0.6249999999697451  0.1074400022508328   F   F   F
  0.8829415777896792  0.6416910076598445  0.3089233837778410   T   T   T
  0.8791054448293403  0.4981911090822986  0.1972017646645251   T   T   T
  0.7500000000051870  0.7500000000051870  0.1074400022508328   F   F   F
  0.7562561131812073  0.7526265964763921  0.2906460941222778   T   T   T
  0.7507795104871354  0.8753871647669522  0.1987675294293023   T   T   T
  0.4414082966788159  0.3263364662089495  0.4041876349490509   T   T   T
  0.3867994846743114  0.4081456998130298  0.3945153028374571   T   T   T
  0.5431800239931648  0.3310612020156106  0.4036378402649742   T   T   T
  0.5990151665495427  0.4198399496528804  0.4060080194199701   T   T   T
  0.4386580672632845  0.6541872224963222  0.3609876313404228   T   T   T
  0.4955167710733230  0.7219117674357041  0.3931857879634481   T   T   T
  0.4713855627595461  0.8160787726877163  0.3707554127976612   T   T   T
  0.5386362480880326  0.8884917361532481  0.3787412663398327   T   T   T
  0.5629736403277681  0.5134403332938873  0.4070966766010886   T   T   T
  0.6218821512988777  0.5949936762105346  0.4089233537841125   T   T   T
  0.5904490787634747  0.6936554685275990  0.4138137031180083   T   T   T
  0.6562078230657160  0.7697544236663043  0.4139078983149619   T   T   T
  0.6237132215780962  0.8608333974719905  0.4010705114107178   T   T   T
  0.7007428560093271  0.4108515887594593  0.3957179885899049   T   T   T
  0.7576462321587455  0.4895662833538731  0.3877782728732179   T   T   T
  0.7221214217236761  0.5796227855841307  0.3964265289126666   T   T   T
  0.7807180513819696  0.6593880267827715  0.3783845525061382   T   T   T
  0.7473442752320206  0.7459550615752115  0.3898495506441236   T   T   T
  0.2969495017602163  0.2409772562122908  0.3840776715409253   T   T   T
  0.2483985177369011  0.3197523784665517  0.3695869354252377   T   T   T
  0.2932565744858709  0.4076982149490704  0.3730387056673670   T   T   T
  0.3937519795071980  0.2361144484233380  0.3971271574254119   T   T   T
  0.4450215055256815  0.1560601895720312  0.3709700614609286   T   T   T
  0.5418386748955806  0.1575260033291871  0.3717909494842957   T   T   T
  0.5893694061173647  0.2411390904330057  0.3941824869459175   T   T   T
  0.6866036385433241  0.2435033849691247  0.3790644448676371   T   T   T
  0.7366363287148837  0.3210222340605364  0.3770319705171468   T   T   T
 
 