CONTCAR-VA2                             
   1.00000000000000     
    14.4588000000000001    0.0000000000000000    0.0000000000000000
     0.0000000000000000   14.4588000000000001    0.0000000000000000
     0.0000000000000000    0.0000000000000000   18.6146999999999991
   C    Co   Cu
    26    48    48
Selective dynamics
Direct
  0.5831725855885416  0.1962309107795631  0.3949794457165827   T   T   T
  0.6674603298678773  0.5300429916144999  0.4138386047633143   T   T   T
  0.6972190672935414  0.7027157081681078  0.3967645703666269   T   T   T
  0.2555871280585333  0.3342557149088475  0.3665233512234234   T   T   T
  0.5598326020473281  0.7917936666053441  0.3675262238938320   T   T   T
  0.5970964590669008  0.4608925260176883  0.4146411476834700   T   T   T
  0.6345611101383122  0.6236766996266108  0.4059966701127320   T   T   T
  0.6545999609497021  0.7872363702792130  0.3748867738674742   T   T   T
  0.3167318363894171  0.4139300539305844  0.3739680351857682   T   T   T
  0.7649897722446573  0.5080194171642265  0.4013709984106941   T   T   T
  0.2934732144464064  0.2491891349454088  0.3805157954084938   T   T   T
  0.8197253771818381  0.5865768967098124  0.3798474133915298   T   T   T
  0.7406531286782738  0.2533408805867940  0.3885859866748093   T   T   T
  0.5371660102685890  0.6307034038666766  0.3914912703214528   T   T   T
  0.6208382758882950  0.3666907628026990  0.4115307318738500   T   T   T
  0.4270675283008247  0.1429578166027721  0.3675464263590540   T   T   T
  0.3879120258277534  0.2287047023642634  0.3951007778822591   T   T   T
  0.4960728564825464  0.7160088487213120  0.3742208062087427   T   T   T
  0.7899011977207965  0.4145879772086656  0.3867498585740674   T   T   T
  0.7208985628342698  0.3464340682253679  0.4017203125148404   T   T   T
  0.6805453061983263  0.1835996702406384  0.3832510339625949   T   T   T
  0.7908276932468858  0.6757454185805553  0.3782733220037798   T   T   T
  0.4503022768876473  0.3078649185366691  0.4051634451968824   T   T   T
  0.5510599293992485  0.2913444401692080  0.4065343877871866   T   T   T
  0.4086970211453179  0.3984593248064275  0.3960040978516013   T   T   T
  0.5221008837857151  0.1253983793305830  0.3680139013145851   T   T   T
  0.7776829042607196  0.1841940429070882  0.3109877039883278   T   T   T
  0.1268821780327435  0.6269559341113610  0.2889750083472867   T   T   T
  0.0056258746420483  0.7454891436342479  0.2895507178637465   T   T   T
  0.0014385470977652  0.8714226367075384  0.1989630612426269   T   T   T
  0.1281990514618369  0.4965355495250745  0.2053724865600601   T   T   T
  0.7485229267334541  0.3757721163019940  0.1963303759607554   T   T   T
  0.0000000000000000  0.7500000000000000  0.1074399999999969   F   F   F
  0.7500000000000000  0.2500000000000000  0.1074399999999969   F   F   F
  0.1250000000000000  0.6250000000000000  0.1074399999999969   F   F   F
  0.2500000000000000  0.7500000000000000  0.1074399999999969   F   F   F
  0.2482329707159384  0.7423239373600358  0.2917487914763408   T   T   T
  0.6075714628373944  0.6168500254371146  0.2910445708381238   T   T   T
  0.6232595660483119  0.5032845716245702  0.1966622278025097   T   T   T
  0.2307882678310807  0.2296199094138995  0.2954115167215415   T   T   T
  0.2500000000000000  0.2500000000000000  0.1074399999999969   F   F   F
  0.3878102598866888  0.6682502175868515  0.3165918132320515   T   T   T
  0.3754903824317269  0.5020478526804917  0.1924377299600294   T   T   T
  0.5000000000000000  0.7500000000000000  0.1074399999999969   F   F   F
  0.5034356797352328  0.7670740325691233  0.2772204394068832   T   T   T
  0.7485735168910501  0.8764996275463584  0.2009191627675613   T   T   T
  0.8750000000000000  0.6250000000000000  0.1074399999999969   F   F   F
  0.7442845944038419  0.7559103169055296  0.2945459479191984   T   T   T
  0.7500000000000000  0.7500000000000000  0.1074399999999969   F   F   F
  0.2488151424311956  0.8732592727300202  0.1988394143593901   T   T   T
  0.6250000000000000  0.6250000000000000  0.1074399999999969   F   F   F
  0.8818386884939605  0.6408413031212626  0.3020143926504623   T   T   T
  0.9079027273093595  0.1157254411722242  0.2941582297816771   T   T   T
  0.5008128661983338  0.8849908778254194  0.1980891327793903   T   T   T
  0.8770557467940761  0.4976630664791316  0.1996911120539203   T   T   T
  0.8750000000000000  0.1250000000000000  0.1074399999999969   F   F   F
  0.3750000000000000  0.6250000000000000  0.1074399999999969   F   F   F
  0.4972818400273391  0.2432958026087832  0.3043177791849530   T   T   T
  0.5030856915398371  0.3719408210394933  0.1911469140551636   T   T   T
  0.6244515337221795  0.9993488380884341  0.2010583260074388   T   T   T
  0.5000000000000000  0.2500000000000000  0.1074399999999969   F   F   F
  0.6250000000000000  0.1250000000000000  0.1074399999999969   F   F   F
  0.6265185060195755  0.1106816899644185  0.2954618945951735   T   T   T
  0.8808297365215298  0.9980707662272644  0.2001362358648126   T   T   T
  0.2516417294942128  0.3776194190164799  0.2001084604192189   T   T   T
  0.3750000000000000  0.1250000000000000  0.1074399999999969   F   F   F
  0.0036419388632877  0.2464245328615001  0.2893660027130132   T   T   T
  0.3593223445043962  0.1195325564099611  0.2853828787101452   T   T   T
  0.1228366225963457  0.9970947696666191  0.1994802081043773   T   T   T
  0.9989696955324824  0.3766823972579839  0.2051868611728159   T   T   T
  0.1250000000000000  0.1250000000000000  0.1074399999999969   F   F   F
  0.0000000000000000  0.2500000000000000  0.1074399999999969   F   F   F
  0.3725774660952000  0.9997777398917252  0.1998355116582535   T   T   T
  0.1133317527368992  0.1229526078782735  0.2875591792299561   T   T   T
  0.1250000000000000  0.3750000000000000  0.1074399999999969   F   F   F
  0.0000000000000000  0.0000000000000000  0.1074399999999969   F   F   F
  0.2752894809734831  0.5188339603287584  0.3091371143452802   T   T   T
  0.1250000000000000  0.8750000000000000  0.1074399999999969   F   F   F
  0.1299964368673536  0.8674878569738330  0.2941457605841107   T   T   T
  0.6043574564076102  0.3887145684162784  0.2924161823102385   T   T   T
  0.3750000000000000  0.3750000000000000  0.1074399999999969   F   F   F
  0.5000000000000000  0.0000000000000000  0.1074399999999969   F   F   F
  0.7503210268791146  0.1233128826360313  0.1953197861532068   T   T   T
  0.1262239841556538  0.7480319200417812  0.1972403377756861   T   T   T
  0.7620884103785599  0.0056218895140712  0.2931217884581002   T   T   T
  0.8765891724734673  0.8705030515387303  0.2929624369066047   T   T   T
  0.2434662172411199  0.9995645349351190  0.2933434519004431   T   T   T
  0.4931468352574194  0.0046887569706583  0.3001055856422813   T   T   T
  0.3742360749427758  0.2517662294721066  0.2026725010226127   T   T   T
  0.6250000000000000  0.8750000000000000  0.1074399999999969   F   F   F
  0.2437673290323021  0.1242718065924165  0.1951450455218676   T   T   T
  0.2500000000000000  0.0000000000000000  0.1074399999999969   F   F   F
  0.0072145832216894  0.9846054872225600  0.2978699734541281   T   T   T
  0.8750000000000000  0.3750000000000000  0.1074399999999969   F   F   F
  0.8775064142190980  0.3735650774689814  0.3088341443032064   T   T   T
  0.8703580503695934  0.2505974510411540  0.2055912891241729   T   T   T
  0.0000000000000000  0.5000000000000000  0.1074399999999969   F   F   F
  0.9996914031204311  0.5036409639752336  0.2962855500002779   T   T   T
  0.9983624791093857  0.6233875815049762  0.1991069624875524   T   T   T
  0.6270187034374857  0.2487531611358536  0.2063624764612284   T   T   T
  0.1240529020480200  0.2542009821813066  0.1970224111977961   T   T   T
  0.7500000000000000  0.0000000000000000  0.1074399999999969   F   F   F
  0.3750000000000000  0.8750000000000000  0.1074399999999969   F   F   F
  0.2500000000000000  0.5000000000000000  0.1074399999999969   F   F   F
  0.3721911586101438  0.7494679333677666  0.1974293638429696   T   T   T
  0.2540953424069122  0.6216023718110580  0.2015432078733486   T   T   T
  0.4750834348635898  0.5128238894345512  0.3889283933801201   T   T   T
  0.3689249037104886  0.8740158592040067  0.2921689623284687   T   T   T
  0.0010673390085850  0.1257436261225415  0.1927892743204196   T   T   T
  0.5000000000000000  0.5000000000000000  0.1074399999999969   F   F   F
  0.1370451832587100  0.3744435448914023  0.3043906073260162   T   T   T
  0.4940571527783527  0.6248916614863508  0.2001808565847257   T   T   T
  0.4997659662304611  0.1274135579204479  0.2000303669441495   T   T   T
  0.7507886105732917  0.6265665022937302  0.2022588576018420   T   T   T
  0.4017860523458999  0.3944520405354246  0.2858008475462801   T   T   T
  0.6286350903256103  0.8917279706652264  0.3045077018179029   T   T   T
  0.6280009597320683  0.7493475171157120  0.1968521432793121   T   T   T
  0.8750000000000000  0.8750000000000000  0.1074399999999969   F   F   F
  0.6250000000000000  0.3750000000000000  0.1074399999999969   F   F   F
  0.8736264020314805  0.7496439215909129  0.1992437317300912   T   T   T
  0.7510868878782675  0.4977319491154820  0.2874921327012316   T   T   T
  0.7500000000000000  0.5000000000000000  0.1074399999999969   F   F   F
 
