CONTCAR-CH2-CH2-TS
   1.00000000000000     
    14.4588003158999996    0.0000000000000000    0.0000000000000000
     0.0000000000000000   14.4588003158999996    0.0000000000000000
     0.0000000000000000    0.0000000000000000   18.6147003174000005
   Cu   Co   C    H 
    48    48     2     4
Selective dynamics
Direct
  0.0000000000000000  0.0000000000000000  0.1074400022508328   F   F   F
  0.0001661582614716  0.0019434821299171  0.2945899667256455   F   F   F
  0.9999754942425483  0.1237731686702617  0.1977963446577959   F   F   F
  0.1249999999662847  0.3749999999680114  0.1074400022508328   F   F   F
  0.1237235342954648  0.3733266323524376  0.2940295194999365   F   F   F
  0.1249223022412309  0.2509264359107704  0.1979397330341399   F   F   F
  0.2500000000017266  0.0000000000000000  0.1074400022508328   F   F   F
  0.2497028229055758  0.0019646969377547  0.2940982199095927   F   F   F
  0.2490425519651183  0.1248252887900776  0.1977057633680985   F   F   F
  0.3749999999680114  0.3749999999680114  0.1074400022508328   F   F   F
  0.3750089936825560  0.3674036175025890  0.3028913878929913   F   F   F
  0.3749461739521962  0.2508048111878338  0.1987535101435327   F   F   F
  0.5000000000034603  0.0000000000000000  0.1074400022508328   F   F   F
  0.5002520603109559  0.0020006575712941  0.2940795240168015   F   F   F
  0.5009254390018825  0.1247799700462622  0.1977084854916455   F   F   F
  0.6249999999697451  0.3749999999680114  0.1074400022508328   F   F   F
  0.6262129027026830  0.3732292670249961  0.2939525848397153   F   F   F
  0.6249829377224998  0.2508930903470912  0.1979634111037001   F   F   F
  0.7500000000051870  0.0000000000000000  0.1074400022508328   F   F   F
  0.7498462534776564  0.0019035904251012  0.2945660798126042   F   F   F
  0.7500484962200105  0.1237446879421853  0.1977362355439709   F   F   F
  0.8749999999714717  0.3749999999680114  0.1074400022508328   F   F   F
  0.8750138353842587  0.3730947540342626  0.2939612127255629   F   F   F
  0.8750374371432841  0.2509715355118729  0.1978546360134388   F   F   F
  0.0000000000000000  0.5000000000034603  0.1074400022508328   F   F   F
  0.9997988065926933  0.5022259644842109  0.2942704680123356   F   F   F
  0.9999108171447375  0.6242273129800040  0.1979369728199245   F   F   F
  0.1249999999662847  0.8749999999714717  0.1074400022508328   F   F   F
  0.1251532528288806  0.8727104312882545  0.2943929305208357   F   F   F
  0.1249858593300175  0.7509770058209355  0.1980264311366966   F   F   F
  0.2500000000017266  0.5000000000034603  0.1074400022508328   F   F   F
  0.2495536489726504  0.5045611982484672  0.2935598444763272   F   F   F
  0.2502309107058025  0.6239349824536049  0.1974097864527380   F   F   F
  0.3749999999680114  0.8749999999714717  0.1074400022508328   F   F   F
  0.3749961590426309  0.8729932790699095  0.2941356750137203   F   F   F
  0.3750181524748299  0.7509490221780482  0.1981022091217710   F   F   F
  0.5000000000034603  0.5000000000034603  0.1074400022508328   F   F   F
  0.5004666555912678  0.5044360405677821  0.2935918955658394   F   F   F
  0.4997976549814283  0.6239391506179501  0.1974132403190296   F   F   F
  0.6249999999697451  0.8749999999714717  0.1074400022508328   F   F   F
  0.6248360091252323  0.8727247528071160  0.2943725062035227   F   F   F
  0.6249981242568836  0.7509674726047848  0.1980203999858929   F   F   F
  0.7500000000051870  0.5000000000034603  0.1074400022508328   F   F   F
  0.7501834643832410  0.5021806920445115  0.2942396990127847   F   F   F
  0.7500598810862655  0.6242165169321297  0.1979392846066830   F   F   F
  0.8749999999714717  0.8749999999714717  0.1074400022508328   F   F   F
  0.8749610578953835  0.8728437749188345  0.2946419695357463   F   F   F
  0.8749767921362022  0.7510224762294939  0.1981579263465960   F   F   F
  0.1249999999662847  0.1249999999662847  0.1074400022508328   F   F   F
  0.1246576680087443  0.1304225997616939  0.2895975887861866   F   F   F
  0.1249257374993249  0.9998739662807097  0.2013408196931508   F   F   F
  0.0000000000000000  0.2500000000017266  0.1074400022508328   F   F   F
  0.9990986618959781  0.2431036817129666  0.2894252803276771   F   F   F
  0.0002219192873696  0.3748469398946597  0.2008959748914236   F   F   F
  0.3749999999680114  0.1249999999662847  0.1074400022508328   F   F   F
  0.3748830258406741  0.1266006326194145  0.2865169628117599   F   F   F
  0.3749669487951763  0.0005917503555892  0.2011172795520224   F   F   F
  0.2500000000017266  0.2500000000017266  0.1074400022508328   F   F   F
  0.2466888507605063  0.2467203545095842  0.2921575587651475   F   F   F
  0.2510234024197899  0.3749545709538751  0.2012402514893523   F   F   F
  0.6249999999697451  0.1249999999662847  0.1074400022508328   F   F   F
  0.6254458711565860  0.1303462003234301  0.2895495681246700   F   F   F
  0.6250588018938146  0.9998719554683220  0.2012898514509374   F   F   F
  0.5000000000034603  0.2500000000017266  0.1074400022508328   F   F   F
  0.5029853814303635  0.2464343718208895  0.2922049529915469   F   F   F
  0.4988812026068814  0.3748824331759764  0.2012491319212444   F   F   F
  0.8749999999714717  0.1249999999662847  0.1074400022508328   F   F   F
  0.8750051978173659  0.1301738169655948  0.2891709408721681   F   F   F
  0.8749988308938512  0.9994333635012680  0.2015219278739409   F   F   F
  0.7500000000051870  0.2500000000017266  0.1074400022508328   F   F   F
  0.7509019164671429  0.2430922950744403  0.2893109744441631   F   F   F
  0.7497910645099708  0.3748254816859031  0.2008507010983465   F   F   F
  0.1249999999662847  0.6249999999697451  0.1074400022508328   F   F   F
  0.1246998929116216  0.6308142242924077  0.2892382211581719   F   F   F
  0.1247972950338152  0.4999539974826206  0.2012659115000659   F   F   F
  0.0000000000000000  0.7500000000051870  0.1074400022508328   F   F   F
  0.9999289803347793  0.7441170688844068  0.2896093915283515   F   F   F
  0.0000023766544004  0.8749866687559376  0.2013447870110454   F   F   F
  0.3749999999680114  0.6249999999697451  0.1074400022508328   F   F   F
  0.3750537106718710  0.6296391899138740  0.2888089269567544   F   F   F
  0.3750013487981292  0.4959365498275261  0.2029718131360596   F   F   F
  0.2500000000017266  0.7500000000051870  0.1074400022508328   F   F   F
  0.2500907636219338  0.7432569298137039  0.2894466897631887   F   F   F
  0.2498896789536715  0.8744444757415195  0.2010414753153000   F   F   F
  0.6249999999697451  0.6249999999697451  0.1074400022508328   F   F   F
  0.6252753668458411  0.6308325105082773  0.2892640946949925   F   F   F
  0.6251429274703071  0.4999505757515692  0.2012496120220604   F   F   F
  0.5000000000034603  0.7500000000051870  0.1074400022508328   F   F   F
  0.4999390996402298  0.7432388786057587  0.2894877667987288   F   F   F
  0.5000878196688561  0.8744252838716307  0.2010218578061682   F   F   F
  0.8749999999714717  0.6249999999697451  0.1074400022508328   F   F   F
  0.8749642895737324  0.6305188883628006  0.2894885468204649   F   F   F
  0.8750127627553255  0.5002716177304407  0.2009278122986373   F   F   F
  0.7500000000051870  0.7500000000051870  0.1074400022508328   F   F   F
  0.7500090056577378  0.7440989749505889  0.2896386513960536   F   F   F
  0.7499813572347307  0.8749878392091688  0.2012867862930676   F   F   F
  0.4544647663228432  0.3031566000671049  0.3769251358247772   T   T   T
  0.2945717781733137  0.3041010372662711  0.3768027744885742   T   T   T
  0.4423169539440153  0.2443195794144586  0.4131552070419318   T   T   T
  0.4824857745292661  0.3621378309853540  0.4074166702961151   T   T   T
  0.3057652367919133  0.2453681547310609  0.4133499529150413   T   T   T
  0.2670064386724462  0.3635890981211602  0.4061711511759665   T   T   T
 
