CONTCAR-CH2-CO              
   1.00000000000000     
    14.4588003158999996    0.0000000000000000    0.0000000000000000
     0.0000000000000000   14.4588003158999996    0.0000000000000000
     0.0000000000000000    0.0000000000000000   18.6147003174000005
   Cu   Co   C    O    H 
    48    48     2     1     2
Selective dynamics
Direct
  0.0000000000000000  0.0000000000000000  0.1074400022508328   F   F   F
  0.0002549135623511  0.0020018156694732  0.2942854849715388   F   F   F
  0.0001591489650181  0.1238819338433856  0.1978063861918073   F   F   F
  0.1249999999662847  0.3749999999680114  0.1074400022508328   F   F   F
  0.1256767661169249  0.3717003074210368  0.2937680432714700   F   F   F
  0.1264961932081334  0.2509037331545798  0.1983072787160864   F   F   F
  0.2500000000017266  0.0000000000000000  0.1074400022508328   F   F   F
  0.2504146399592955  0.0012719027277797  0.2938347456799164   F   F   F
  0.2504071245797661  0.1242154618898041  0.1980683102176926   F   F   F
  0.3749999999680114  0.3749999999680114  0.1074400022508328   F   F   F
  0.3770535826644377  0.3779754594469011  0.2964480913609790   F   F   F
  0.3743317590362878  0.2508950223226165  0.1959243856222272   F   F   F
  0.5000000000034603  0.0000000000000000  0.1074400022508328   F   F   F
  0.5000949516707891  0.0015604688247279  0.2938117453836497   F   F   F
  0.4998654203997646  0.1249106914647058  0.1988338620564249   F   F   F
  0.6249999999697451  0.3749999999680114  0.1074400022508328   F   F   F
  0.6240886035377713  0.3720174815367443  0.2941479261027027   F   F   F
  0.6234390130921241  0.2512715967505699  0.1986420853082649   F   F   F
  0.7500000000051870  0.0000000000000000  0.1074400022508328   F   F   F
  0.7495150985689634  0.0025897792949010  0.2943355194588904   F   F   F
  0.7499438289310660  0.1242083925856861  0.1979114582351613   F   F   F
  0.8749999999714717  0.3749999999680114  0.1074400022508328   F   F   F
  0.8754641947835182  0.3732497961037424  0.2939592280154812   F   F   F
  0.8752225981231163  0.2512128393126360  0.1978288558870034   F   F   F
  0.0000000000000000  0.5000000000034603  0.1074400022508328   F   F   F
  0.0015897797988274  0.5027330598652071  0.2939645358686676   F   F   F
  0.0005731586806519  0.6247070890153381  0.1985844277922126   F   F   F
  0.1249999999662847  0.8749999999714717  0.1074400022508328   F   F   F
  0.1250099269085609  0.8735230234677971  0.2940749965910996   F   F   F
  0.1248519851116470  0.7502915061025135  0.1980810923001499   F   F   F
  0.2500000000017266  0.5000000000034603  0.1074400022508328   F   F   F
  0.2483372247346978  0.5040717423618943  0.2938325594970053   F   F   F
  0.2491871787828899  0.6248175493563224  0.1982848001685369   F   F   F
  0.3749999999680114  0.8749999999714717  0.1074400022508328   F   F   F
  0.3755847968115944  0.8730153931908120  0.2942116479407062   F   F   F
  0.3749620568662593  0.7508424984339896  0.1978766229436033   F   F   F
  0.5000000000034603  0.5000000000034603  0.1074400022508328   F   F   F
  0.5009863237385588  0.5041626942771131  0.2942519553781793   F   F   F
  0.5001908185357138  0.6239718533486140  0.1975224877007733   F   F   F
  0.6249999999697451  0.8749999999714717  0.1074400022508328   F   F   F
  0.6251408161917311  0.8731312663769941  0.2942462084785902   F   F   F
  0.6250435763350524  0.7510255933117023  0.1978007562290145   F   F   F
  0.7500000000051870  0.5000000000034603  0.1074400022508328   F   F   F
  0.7498792542941999  0.5018280539524511  0.2941090848013701   F   F   F
  0.7500643172042345  0.6240355095220878  0.1977624933262376   F   F   F
  0.8749999999714717  0.8749999999714717  0.1074400022508328   F   F   F
  0.8744322655227990  0.8735124014942386  0.2945044764780036   F   F   F
  0.8751281005223959  0.7509529806411877  0.1980537374649103   F   F   F
  0.1249999999662847  0.1249999999662847  0.1074400022508328   F   F   F
  0.1255097972563632  0.1307320381571486  0.2893264077747730   F   F   F
  0.1250601138647696  0.0000593167815452  0.2011969633183455   F   F   F
  0.0000000000000000  0.2500000000017266  0.1074400022508328   F   F   F
  0.0003613780064882  0.2437541810631672  0.2890047380849126   F   F   F
  0.0003758915164127  0.3755646748672703  0.2011362423813878   F   F   F
  0.3749999999680114  0.1249999999662847  0.1074400022508328   F   F   F
  0.3743540113892792  0.1269248173042641  0.2891382566705971   F   F   F
  0.3753046000120221  0.9987119743049604  0.2004116732698051   F   F   F
  0.2500000000017266  0.2500000000017266  0.1074400022508328   F   F   F
  0.2507937913995519  0.2435838240363424  0.2915735312510321   F   F   F
  0.2501120178236960  0.3763644239034889  0.2010599040105348   F   F   F
  0.6249999999697451  0.1249999999662847  0.1074400022508328   F   F   F
  0.6248452778360232  0.1317306327178471  0.2895299093236403   F   F   F
  0.6249862638450807  0.0003337654832052  0.2011984572320671   F   F   F
  0.5000000000034603  0.2500000000017266  0.1074400022508328   F   F   F
  0.4936070647575121  0.2476028656144891  0.2914353994634595   F   F   F
  0.4992896506034228  0.3758908722382301  0.2011816062298664   F   F   F
  0.8749999999714717  0.1249999999662847  0.1074400022508328   F   F   F
  0.8752268751365193  0.1311506253816148  0.2890157306555281   F   F   F
  0.8749729353465696  0.0000261328144404  0.2012811533666365   F   F   F
  0.7500000000051870  0.2500000000017266  0.1074400022508328   F   F   F
  0.7500012002664107  0.2442077415814268  0.2890057922211042   F   F   F
  0.7499287048819241  0.3750545617138741  0.2012017411929889   F   F   F
  0.1249999999662847  0.6249999999697451  0.1074400022508328   F   F   F
  0.1246942943014844  0.6315862576903797  0.2935229061688318   F   F   F
  0.1248950307740415  0.4990665453067393  0.1992383786494116   F   F   F
  0.0000000000000000  0.7500000000051870  0.1074400022508328   F   F   F
  0.9992754804966424  0.7466099229398964  0.2901898110217260   F   F   F
  0.9997618836620319  0.8742579927761440  0.2015359346221572   F   F   F
  0.3749999999680114  0.6249999999697451  0.1074400022508328   F   F   F
  0.3757090326102031  0.6311363046463399  0.2891148895832387   F   F   F
  0.3743308705083948  0.4993899781306865  0.2016075143023883   F   F   F
  0.2500000000017266  0.7500000000051870  0.1074400022508328   F   F   F
  0.2505880696190843  0.7461952215786951  0.2899922464293354   F   F   F
  0.2500813214454425  0.8740451287055251  0.2013012066024515   F   F   F
  0.6249999999697451  0.6249999999697451  0.1074400022508328   F   F   F
  0.6256128291023657  0.6309942396394561  0.2891635477490411   F   F   F
  0.6252227433005473  0.4997569528641179  0.2010031416547093   F   F   F
  0.5000000000034603  0.7500000000051870  0.1074400022508328   F   F   F
  0.5005013067363890  0.7438323921200833  0.2890150352349821   F   F   F
  0.5003286395424382  0.8749157670104069  0.2007375105392342   F   F   F
  0.8749999999714717  0.6249999999697451  0.1074400022508328   F   F   F
  0.8739503191161049  0.6307177991891280  0.2893412322757527   F   F   F
  0.8756395297589137  0.5003222041731590  0.2011680485440124   F   F   F
  0.7500000000051870  0.7500000000051870  0.1074400022508328   F   F   F
  0.7497327891666430  0.7446516868514834  0.2891786221955002   F   F   F
  0.7499206387414006  0.8752156824638249  0.2011234882191886   F   F   F
  0.3774038368587114  0.2403262696337620  0.3487300586366260   T   T   T
  0.1250467039604501  0.6181995828141424  0.3858473199334114   T   T   T
  0.1254038255294319  0.6083096638805969  0.4483454537448495   T   T   T
  0.3998029342512552  0.2211335552409466  0.4037052623337871   T   T   T
  0.3159056312700202  0.2906162825764795  0.3636717079113350   T   T   T
 
