CONTCAR-CH2-CH              
   1.00000000000000     
    14.4588003158999996    0.0000000000000000    0.0000000000000000
     0.0000000000000000   14.4588003158999996    0.0000000000000000
     0.0000000000000000    0.0000000000000000   18.6147003174000005
   Cu   Co   C    H 
    48    48     2     3
Selective dynamics
Direct
  0.0000000000000000  0.0000000000000000  0.1074400022508328   F   F   F
  0.0002152302598262  0.0023407872341181  0.2945313704699686   F   F   F
  0.0002018307330189  0.1239102501592413  0.1978562296104514   F   F   F
  0.1249999999662847  0.3749999999680114  0.1074400022508328   F   F   F
  0.1257501144437327  0.3711429194772151  0.2941835422932400   F   F   F
  0.1263946928728288  0.2512097378718892  0.1982810066978615   F   F   F
  0.2500000000017266  0.0000000000000000  0.1074400022508328   F   F   F
  0.2505000522560934  0.0013669706113220  0.2941039834241010   F   F   F
  0.2503818203122776  0.1241888431328491  0.1981662589922308   F   F   F
  0.3749999999680114  0.3749999999680114  0.1074400022508328   F   F   F
  0.3769071911465502  0.3785771405944374  0.2972523859191369   F   F   F
  0.3743816901887911  0.2509144336019489  0.1960246108984265   F   F   F
  0.5000000000034603  0.0000000000000000  0.1074400022508328   F   F   F
  0.4997482177707226  0.0012872652888731  0.2941639593052301   F   F   F
  0.4998350147608477  0.1248221588478486  0.1990144086318466   F   F   F
  0.6249999999697451  0.3749999999680114  0.1074400022508328   F   F   F
  0.6239627610012448  0.3720983535806326  0.2944330779154711   F   F   F
  0.6233602321666041  0.2511829511900885  0.1988420405459337   F   F   F
  0.7500000000051870  0.0000000000000000  0.1074400022508328   F   F   F
  0.7497375754618432  0.0024906881542819  0.2948467895879219   F   F   F
  0.7498123640922500  0.1241279009514784  0.1981040326065795   F   F   F
  0.8749999999714717  0.3749999999680114  0.1074400022508328   F   F   F
  0.8755283579400626  0.3735126413488246  0.2945265241602044   F   F   F
  0.8751337615471186  0.2513602808993838  0.1979318673647867   F   F   F
  0.0000000000000000  0.5000000000034603  0.1074400022508328   F   F   F
  0.0019043448692742  0.5036688179312137  0.2957381771080279   F   F   F
  0.9992924024838246  0.6243233749198183  0.1978420467250999   F   F   F
  0.1249999999662847  0.8749999999714717  0.1074400022508328   F   F   F
  0.1250654442640737  0.8742663917201838  0.2942171383313976   F   F   F
  0.1247636954335718  0.7510419217225675  0.1974631022830735   F   F   F
  0.2500000000017266  0.5000000000034603  0.1074400022508328   F   F   F
  0.2483197714553214  0.5049627506645820  0.2953560004493454   F   F   F
  0.2504075842204685  0.6243956021814441  0.1975117617504338   F   F   F
  0.3749999999680114  0.8749999999714717  0.1074400022508328   F   F   F
  0.3749036473508909  0.8719316494698646  0.2944203556883593   F   F   F
  0.3748108471298366  0.7509226039344554  0.1981525296285938   F   F   F
  0.5000000000034603  0.5000000000034603  0.1074400022508328   F   F   F
  0.5012037235795148  0.5043573410909801  0.2944651215709584   F   F   F
  0.5002022119956280  0.6239671642784472  0.1974819601217987   F   F   F
  0.6249999999697451  0.8749999999714717  0.1074400022508328   F   F   F
  0.6251506459026714  0.8729949615773194  0.2945466246165864   F   F   F
  0.6251841412559145  0.7512514222110198  0.1977159830070718   F   F   F
  0.7500000000051870  0.5000000000034603  0.1074400022508328   F   F   F
  0.7498485458155244  0.5017841769175178  0.2943598640707989   F   F   F
  0.7502315964835944  0.6240088049577892  0.1977152536959252   F   F   F
  0.8749999999714717  0.8749999999714717  0.1074400022508328   F   F   F
  0.8751664008706967  0.8727405532050767  0.2949062994078062   F   F   F
  0.8753485917641939  0.7511807099226573  0.1984175026029789   F   F   F
  0.1249999999662847  0.1249999999662847  0.1074400022508328   F   F   F
  0.1254755130212573  0.1313067055190587  0.2895231169647516   F   F   F
  0.1250748868913902  0.0000190686860435  0.2013127155738488   F   F   F
  0.0000000000000000  0.2500000000017266  0.1074400022508328   F   F   F
  0.0000754213107541  0.2439560378857237  0.2890440180947706   F   F   F
  0.0000457511580336  0.3763183526474023  0.2017216009225891   F   F   F
  0.3749999999680114  0.1249999999662847  0.1074400022508328   F   F   F
  0.3743613434254556  0.1270011244461244  0.2893815762312570   F   F   F
  0.3752086618144688  0.9985571628553771  0.2008239187745176   F   F   F
  0.2500000000017266  0.2500000000017266  0.1074400022508328   F   F   F
  0.2508781918230127  0.2436834306951070  0.2915953474180171   F   F   F
  0.2504202931239803  0.3767570204504480  0.2014849342099794   F   F   F
  0.6249999999697451  0.1249999999662847  0.1074400022508328   F   F   F
  0.6245560463211817  0.1316169532941203  0.2899045576911803   F   F   F
  0.6250215377524810  0.0002781067237052  0.2015453331389452   F   F   F
  0.5000000000034603  0.2500000000017266  0.1074400022508328   F   F   F
  0.4934637956547334  0.2477973574308905  0.2916569177833139   F   F   F
  0.4992384323150674  0.3758785467765193  0.2015196706027709   F   F   F
  0.8749999999714717  0.1249999999662847  0.1074400022508328   F   F   F
  0.8752006227438045  0.1311403504510196  0.2890238993743850   F   F   F
  0.8749012633945839  0.9998255356303432  0.2016170236398196   F   F   F
  0.7500000000051870  0.2500000000017266  0.1074400022508328   F   F   F
  0.7499675381306758  0.2443624429413802  0.2891072375308994   F   F   F
  0.7498389461823010  0.3750021299996646  0.2014008404226004   F   F   F
  0.1249999999662847  0.6249999999697451  0.1074400022508328   F   F   F
  0.1248257066684744  0.6282145727267832  0.2877943088961530   F   F   F
  0.1248564944733275  0.4982359237054652  0.1992192503378902   F   F   F
  0.0000000000000000  0.7500000000051870  0.1074400022508328   F   F   F
  0.0003318319895840  0.7443362645332314  0.2911165741220501   F   F   F
  0.9996493754932061  0.8743381189595354  0.2020783591682189   F   F   F
  0.3749999999680114  0.6249999999697451  0.1074400022508328   F   F   F
  0.3766667641626142  0.6316058652402035  0.2895740544202070   F   F   F
  0.3744916160949074  0.4990195839707638  0.2021401863713237   F   F   F
  0.2500000000017266  0.7500000000051870  0.1074400022508328   F   F   F
  0.2495637696957687  0.7439699587806174  0.2906931789061957   F   F   F
  0.2500839309417344  0.8740410948460919  0.2016064327832794   F   F   F
  0.6249999999697451  0.6249999999697451  0.1074400022508328   F   F   F
  0.6259251003490576  0.6312148690811767  0.2890541152798107   F   F   F
  0.6253339704868353  0.4996944675699737  0.2010760938785481   F   F   F
  0.5000000000034603  0.7500000000051870  0.1074400022508328   F   F   F
  0.5009952293587361  0.7438849218738568  0.2890603085903365   F   F   F
  0.5003171231373003  0.8751747542804296  0.2010437392317925   F   F   F
  0.8749999999714717  0.6249999999697451  0.1074400022508328   F   F   F
  0.8730546014100824  0.6312611916440574  0.2898630746424189   F   F   F
  0.8755562364324732  0.4998130362182280  0.2017845136028313   F   F   F
  0.7500000000051870  0.7500000000051870  0.1074400022508328   F   F   F
  0.7496235666631890  0.7446942277399557  0.2892838709076742   F   F   F
  0.7499774689640617  0.8759220386976878  0.2014222658837994   F   F   F
  0.3772129329873195  0.2405777069551789  0.3489187766693718   T   T   T
  0.1229998852603842  0.6271435598946695  0.3752206037591108   T   T   T
  0.1232668206724981  0.6242653259952746  0.4341812980700723   T   T   T
  0.3985094719235320  0.2212765377044974  0.4041235843748581   T   T   T
  0.3156174320244105  0.2912195291296911  0.3633926367701061   T   T   T
 
