CONTCAR-CH3-CH2                
   1.00000000000000     
    14.4588000000000001    0.0000000000000000    0.0000000000000000
     0.0000000000000000   14.4588000000000001    0.0000000000000000
     0.0000000000000000    0.0000000000000000   18.6146999999999991
   H    C    Co   Cu
     5     2    48    48
Selective dynamics
Direct
  0.3392136515853750  0.2553573671000464  0.4774161709714306   T   T   T
  0.4612774564104214  0.3570304762572150  0.4142644589340136   T   T   T
  0.2966248885914169  0.2190826524848077  0.3934649689769287   T   T   T
  0.4740519380889552  0.2382429050829273  0.3939395796221916   T   T   T
  0.2861550868766471  0.3383050914399703  0.4203279481853031   T   T   T
  0.3328531235046057  0.2781354128404629  0.4209579147067970   T   T   T
  0.4261024319477115  0.3000849370384344  0.3852045438946379   T   T   T
  0.7500000000000000  0.7500000000000000  0.1074399999999969   F   F   F
  0.7502713808372619  0.7440692991169584  0.2896515791337535   F   F   F
  0.8749741735803127  0.6303314266839664  0.2894428059627288   F   F   F
  0.8749718976163194  0.4999321776983550  0.2012150780676123   F   F   F
  0.5002739101735187  0.8743340332767531  0.2010378045680810   F   F   F
  0.8750000000000000  0.6250000000000000  0.1074399999999969   F   F   F
  0.5000000000000000  0.7500000000000000  0.1074399999999969   F   F   F
  0.4999924241646596  0.7432406472525273  0.2895743633421048   F   F   F
  0.7500177714114145  0.8750140755891422  0.2012008110506898   F   F   F
  0.7497939282670458  0.3745937283750109  0.2008821872378945   F   F   F
  0.1250000000000000  0.6250000000000000  0.1074399999999969   F   F   F
  0.1250033153391001  0.6304821906963056  0.2895485239670208   F   F   F
  0.1249560565815102  0.4999990202039797  0.2012504180850954   F   F   F
  0.8752022105460924  0.1304865038356127  0.2895227775302942   F   F   F
  0.8750069321579161  0.9999535554120556  0.2012557584724419   F   F   F
  0.7500000000000000  0.2500000000000000  0.1074399999999969   F   F   F
  0.7499340431550863  0.2435967897454887  0.2897270454016194   F   F   F
  0.0000000000000000  0.7500000000000000  0.1074399999999969   F   F   F
  0.9999365800765929  0.7437633176586971  0.2897788993371861   F   F   F
  0.6250000000000000  0.6250000000000000  0.1074399999999969   F   F   F
  0.2496606793063734  0.8744558498409418  0.2010193392407658   F   F   F
  0.2498524766286181  0.7437465759499275  0.2894488191756466   F   F   F
  0.2500000000000000  0.7500000000000000  0.1074399999999969   F   F   F
  0.3747358779466268  0.4985495440165550  0.2015707775674045   F   F   F
  0.3747910198552233  0.6300309884160882  0.2890804287997568   F   F   F
  0.3750000000000000  0.6250000000000000  0.1074399999999969   F   F   F
  0.9999349564419049  0.8749592042803229  0.2012357647223979   F   F   F
  0.6253428521477389  0.4997943846435220  0.2008809766380111   F   F   F
  0.6255925450994653  0.6309859638376309  0.2892226923257724   F   F   F
  0.8750000000000000  0.1250000000000000  0.1074399999999969   F   F   F
  0.5001274618491394  0.3747983555087160  0.1998557919926540   F   F   F
  0.6250519395732397  0.0001025094977436  0.2014826521716557   F   F   F
  0.6242453698924209  0.1302640265118669  0.2905125113755389   F   F   F
  0.4935715274464130  0.2447496568999696  0.2953755867696799   F   F   F
  0.5000000000000000  0.2500000000000000  0.1074399999999969   F   F   F
  0.2474804487320199  0.2416054798658465  0.2906517975156717   F   F   F
  0.2500000000000000  0.2500000000000000  0.1074399999999969   F   F   F
  0.6250000000000000  0.1250000000000000  0.1074399999999969   F   F   F
  0.2512539544876518  0.3749908790815013  0.2015660038589147   F   F   F
  0.1250000000000000  0.1250000000000000  0.1074399999999969   F   F   F
  0.1245463429886300  0.9994223516530880  0.2011755237529229   F   F   F
  0.1246791026155094  0.1295633715748110  0.2888164827503701   F   F   F
  0.0000810164344429  0.2436026553406450  0.2897003737369914   F   F   F
  0.0000000000000000  0.2500000000000000  0.1074399999999969   F   F   F
  0.3750000000000000  0.1250000000000000  0.1074399999999969   F   F   F
  0.9999064130392554  0.3749383726433422  0.2011813954959010   F   F   F
  0.3752748710241960  0.9994309288803649  0.2010026471656232   F   F   F
  0.3736938497538347  0.1229944350506642  0.2864824503420493   F   F   F
  0.7500000000000000  0.0000000000000000  0.1074399999999969   F   F   F
  0.6229034431977709  0.2506781509618463  0.1996896515666293   F   F   F
  0.5000000000000000  0.0000000000000000  0.1074399999999969   F   F   F
  0.3745603966621971  0.2503622373882024  0.1987920276027637   F   F   F
  0.3789852890440599  0.3741372941458252  0.2957988613726172   F   F   F
  0.3750000000000000  0.3750000000000000  0.1074399999999969   F   F   F
  0.6256171621929170  0.3731273832640696  0.2935528891268291   F   F   F
  0.6250000000000000  0.3750000000000000  0.1074399999999969   F   F   F
  0.5005509178081340  0.1254233430149938  0.1985207700456613   F   F   F
  0.5005931980699145  0.0012113641993281  0.2942379586947297   F   F   F
  0.2500000000000000  0.0000000000000000  0.1074399999999969   F   F   F
  0.1251926000653825  0.2513257411288095  0.1981714608289451   F   F   F
  0.1252745498079406  0.3731734494644243  0.2938609304018627   F   F   F
  0.1250000000000000  0.3750000000000000  0.1074399999999969   F   F   F
  0.9998344952302745  0.1239954859721806  0.1978532494796994   F   F   F
  0.9998267200490787  0.0019031365548301  0.2945710831557591   F   F   F
  0.0000000000000000  0.0000000000000000  0.1074399999999969   F   F   F
  0.2493036556762362  0.1238642931563447  0.1971345515656040   F   F   F
  0.2489054413409804  0.0010503875905172  0.2942247470320325   F   F   F
  0.0000045785316090  0.5019314471588672  0.2943589717280375   F   F   F
  0.9999489206006160  0.6239890263520920  0.1980348411258674   F   F   F
  0.8749710131482260  0.2508548540528253  0.1980829683222325   F   F   F
  0.0000000000000000  0.5000000000000000  0.1074399999999969   F   F   F
  0.8750000000000000  0.3750000000000000  0.1074399999999969   F   F   F
  0.8748081391161975  0.3727305436395341  0.2942282558752396   F   F   F
  0.7498331375315601  0.0022418321363062  0.2944900523257203   F   F   F
  0.7496429122403541  0.1241785413908545  0.1982186605567335   F   F   F
  0.1250000000000000  0.8750000000000000  0.1074399999999969   F   F   F
  0.1246848519427530  0.8724447093600816  0.2945272470850639   F   F   F
  0.2500000000000000  0.5000000000000000  0.1074399999999969   F   F   F
  0.1247968678188300  0.7508084391095835  0.1981164596775500   F   F   F
  0.2499676816975835  0.6240462580612274  0.1978099449174096   F   F   F
  0.2501055906571494  0.5020813303569511  0.2940503044198408   F   F   F
  0.3749747963396928  0.8727033475260981  0.2942921379125352   F   F   F
  0.3750000000000000  0.8750000000000000  0.1074399999999969   F   F   F
  0.5000000000000000  0.5000000000000000  0.1074399999999969   F   F   F
  0.3749664737717637  0.7509273182226082  0.1981234205859010   F   F   F
  0.4999253903260481  0.6241630990594942  0.1975055076417860   F   F   F
  0.5014251715079041  0.5045804169101444  0.2934164408136013   F   F   F
  0.7499860981297459  0.5019255888773557  0.2942884372694650   F   F   F
  0.7501362771589726  0.6240965626749286  0.1979097914266816   F   F   F
  0.8750000000000000  0.8750000000000000  0.1074399999999969   F   F   F
  0.8748898032328967  0.8730574754444831  0.2944447723670649   F   F   F
  0.6250000000000000  0.8750000000000000  0.1074399999999969   F   F   F
  0.6252210143798180  0.8725301847713425  0.2944153414520372   F   F   F
  0.6250971921787567  0.7509551421475962  0.1980141037589078   F   F   F
  0.7500000000000000  0.5000000000000000  0.1074399999999969   F   F   F
  0.8750580784110227  0.7509157250204339  0.1981660184900846   F   F   F
 
