CONTCAR-CH3-CH3                
   1.00000000000000     
    14.4588000000000001    0.0000000000000000    0.0000000000000000
     0.0000000000000000   14.4588000000000001    0.0000000000000000
     0.0000000000000000    0.0000000000000000   18.6146999999999991
   H    C    Co   Cu
     6     2    48    48
Selective dynamics
Direct
  0.4078028095516117  0.2152771479558169  0.4232952051374355   T   T   T
  0.3831266530205397  0.2555895088665423  0.5117412783145809   T   T   T
  0.2399199058256940  0.1873628621501311  0.4376038957430666   T   T   T
  0.3950655023004757  0.3353924554337340  0.4394682295777343   T   T   T
  0.2472917650374171  0.2939180923608831  0.3863055076949564   T   T   T
  0.2222002514381671  0.2982366223191946  0.4771351489055320   T   T   T
  0.3680754043932666  0.2667235176372671  0.4544717416267403   T   T   T
  0.2650166006663354  0.2590331776690746  0.4380750537296338   T   T   T
  0.7500024053319265  0.2438792107560275  0.2898702205004469   F   F   F
  0.1250454074324594  0.6306365042540421  0.2896541888674378   F   F   F
  0.0000205869796375  0.7439990026479819  0.2897481097048669   F   F   F
  0.9999724448802141  0.8749755332194837  0.2012812391236665   F   F   F
  0.1250134939339418  0.5000948179047100  0.2011493163911311   F   F   F
  0.7499965125955512  0.3750048953138858  0.2013301606038240   F   F   F
  0.0000000000000000  0.7500000000000000  0.1074399999999969   F   F   F
  0.7500000000000000  0.2500000000000000  0.1074399999999969   F   F   F
  0.1250000000000000  0.6250000000000000  0.1074399999999969   F   F   F
  0.2500000000000000  0.7500000000000000  0.1074399999999969   F   F   F
  0.2499355938465513  0.7440235887658915  0.2897892206642894   F   F   F
  0.6249711140895258  0.6305621395429810  0.2896160747337575   F   F   F
  0.6250135988152294  0.4999419242290415  0.2012569104108906   F   F   F
  0.2487547177004075  0.2426670745026556  0.2917216562538272   F   F   F
  0.2500000000000000  0.2500000000000000  0.1074399999999969   F   F   F
  0.3749756396735293  0.6309458547338238  0.2896854800967645   F   F   F
  0.3749534781343229  0.5006455478835505  0.2007851367139466   F   F   F
  0.5000000000000000  0.7500000000000000  0.1074399999999969   F   F   F
  0.5000639813470116  0.7440111348943148  0.2897701603034619   F   F   F
  0.7500055304283251  0.8749696996057992  0.2012635990898417   F   F   F
  0.8750000000000000  0.6250000000000000  0.1074399999999969   F   F   F
  0.7499829288793052  0.7437726961032993  0.2897835051215125   F   F   F
  0.7500000000000000  0.7500000000000000  0.1074399999999969   F   F   F
  0.2499862431112660  0.8749995795417433  0.2013220027343152   F   F   F
  0.6250000000000000  0.6250000000000000  0.1074399999999969   F   F   F
  0.8750320670191911  0.6305657674231355  0.2896159709470112   F   F   F
  0.8748802756653333  0.1303576363437031  0.2895289094337059   F   F   F
  0.5000496352478407  0.8749777982240232  0.2013034533763829   F   F   F
  0.8749943807382934  0.4999281437869669  0.2013148312453907   F   F   F
  0.8750000000000000  0.1250000000000000  0.1074399999999969   F   F   F
  0.3750000000000000  0.6250000000000000  0.1074399999999969   F   F   F
  0.5004298717433358  0.2435366445427292  0.2893703700605457   F   F   F
  0.5002943877551260  0.3747358122171960  0.2007209464715416   F   F   F
  0.6251243026398186  0.9997707813861538  0.2012982372342407   F   F   F
  0.5000000000000000  0.2500000000000000  0.1074399999999969   F   F   F
  0.6250000000000000  0.1250000000000000  0.1074399999999969   F   F   F
  0.6251864691977573  0.1302507200314267  0.2894490909168610   F   F   F
  0.8748818171425370  0.9998038719454669  0.2012447754374378   F   F   F
  0.2497117190504170  0.3748432139380427  0.2007907937023390   F   F   F
  0.3750000000000000  0.1250000000000000  0.1074399999999969   F   F   F
  0.9998378340107408  0.2434237315229026  0.2895567779720807   F   F   F
  0.3758855316481018  0.1281860085451569  0.2886535946162496   F   F   F
  0.1249340341945242  0.9999061411946215  0.2014741179594139   F   F   F
  0.9997695268175590  0.3748286068304054  0.2009433083261811   F   F   F
  0.1250000000000000  0.1250000000000000  0.1074399999999969   F   F   F
  0.0000000000000000  0.2500000000000000  0.1074399999999969   F   F   F
  0.3750604790900525  0.9999039021048119  0.2014873978859342   F   F   F
  0.1238435804388303  0.1288501469077730  0.2890068097229772   F   F   F
  0.3756610561824729  0.3744905606974385  0.2922426503147122   F   F   F
  0.3742994717214998  0.2506859957926295  0.1988362186753392   F   F   F
  0.1242732435976848  0.3736188977559962  0.2933656145331369   F   F   F
  0.9995846623294753  0.0017530177274097  0.2945959073645668   F   F   F
  0.1250000000000000  0.3750000000000000  0.1074399999999969   F   F   F
  0.6247881619666487  0.3727296006159193  0.2943699748928594   F   F   F
  0.2499430661048834  0.0021814617567912  0.2945216956735308   F   F   F
  0.2498959423469671  0.1243681604547291  0.1981703522785452   F   F   F
  0.7500000000000000  0.0000000000000000  0.1074399999999969   F   F   F
  0.5003216258266789  0.1239091197014872  0.1976717967117878   F   F   F
  0.6250000000000000  0.3750000000000000  0.1074399999999969   F   F   F
  0.3750000000000000  0.3750000000000000  0.1074399999999969   F   F   F
  0.5000000000000000  0.0000000000000000  0.1074399999999969   F   F   F
  0.1252159769948094  0.2507402294461798  0.1984464828753758   F   F   F
  0.2500000000000000  0.0000000000000000  0.1074399999999969   F   F   F
  0.9996561332099816  0.1238517529681999  0.1977407933385749   F   F   F
  0.6251837884843994  0.2508876369654800  0.1980936368993511   F   F   F
  0.5003675165252872  0.0018764216736287  0.2946156148013870   F   F   F
  0.0000000000000000  0.0000000000000000  0.1074399999999969   F   F   F
  0.7500329978241780  0.0019481126259890  0.2945597012963006   F   F   F
  0.7500320604806063  0.1239772970581612  0.1980964575086048   F   F   F
  0.8750000000000000  0.3750000000000000  0.1074399999999969   F   F   F
  0.8751055383778734  0.3727133306811368  0.2944227049653989   F   F   F
  0.8748670489259638  0.2509014597365677  0.1981138964966078   F   F   F
  0.0000000000000000  0.5000000000000000  0.1074399999999969   F   F   F
  0.9999190817099546  0.5021215591277937  0.2943524928430890   F   F   F
  0.0000139957366017  0.6240742246605322  0.1980733119676827   F   F   F
  0.1250000000000000  0.8750000000000000  0.1074399999999969   F   F   F
  0.1249903208651801  0.8728369292870894  0.2945733827398840   F   F   F
  0.1249856218433436  0.7509620834087229  0.1981856940273090   F   F   F
  0.2500000000000000  0.5000000000000000  0.1074399999999969   F   F   F
  0.2500805847092380  0.5023056825879166  0.2939649193970908   F   F   F
  0.2499532438954333  0.6243139686910766  0.1979982363831425   F   F   F
  0.3750000000000000  0.8750000000000000  0.1074399999999969   F   F   F
  0.3749970337531465  0.8728562113716620  0.2945874127762949   F   F   F
  0.3750062672924983  0.7510172972641840  0.1981747175709501   F   F   F
  0.5000000000000000  0.5000000000000000  0.1074399999999969   F   F   F
  0.5000121432446960  0.5021576274957980  0.2942157603977904   F   F   F
  0.5000253728145481  0.6241663886408944  0.1980606002781613   F   F   F
  0.7500049911528350  0.6239920363763858  0.1980767266636221   F   F   F
  0.6250000000000000  0.8750000000000000  0.1074399999999969   F   F   F
  0.6250948324465071  0.8726699563899345  0.2944845552086193   F   F   F
  0.6250217723265195  0.7508740562820435  0.1981567942803721   F   F   F
  0.8750000000000000  0.8750000000000000  0.1074399999999969   F   F   F
  0.8749098626718634  0.8726480666561898  0.2944482097443526   F   F   F
  0.8749902081874694  0.7508532679053346  0.1981633973826078   F   F   F
  0.7499749043760744  0.5019732632022027  0.2944489579949661   F   F   F
  0.7500000000000000  0.5000000000000000  0.1074399999999969   F   F   F
 
