CONTCAR-CH2-CH2-FS                                     
   1.00000000000000     
    14.4588003158999996    0.0000000000000000    0.0000000000000000
     0.0000000000000000   14.4588003158999996    0.0000000000000000
     0.0000000000000000    0.0000000000000000   18.6147003174000005
   Cu   Co   C    H 
    48    48     2     4
Selective dynamics
Direct
  0.0000000000000000  0.0000000000000000  0.1074400022508328   F   F   F
  0.0001337391738530  0.0021391658428615  0.2944921628967696   T   T   T
  0.0002323314355323  0.1241121826455322  0.1980823572709818   T   T   T
  0.1249999999662847  0.3749999999680114  0.1074400022508328   F   F   F
  0.1247141485411582  0.3735488612708528  0.2936577157906822   T   T   T
  0.1265753721825988  0.2510942816718585  0.1989421048711754   T   T   T
  0.2500000000017266  0.0000000000000000  0.1074400022508328   F   F   F
  0.2490887093374524  0.0009766400750654  0.2941070634072964   T   T   T
  0.2494082304844455  0.1253809429232814  0.1982046340058914   T   T   T
  0.3749999999680114  0.3749999999680114  0.1074400022508328   F   F   F
  0.3749132133863529  0.3740691735809161  0.2969021288998756   T   T   T
  0.3749544682766491  0.2500747675246728  0.1989259115732066   T   T   T
  0.5000000000034603  0.0000000000000000  0.1074400022508328   F   F   F
  0.5009146947010007  0.0010299021834486  0.2941212580505218   T   T   T
  0.5005711702957247  0.1254153323020393  0.1982371270390978   T   T   T
  0.6249999999697451  0.3749999999680114  0.1074400022508328   F   F   F
  0.6251969435899370  0.3734762609813215  0.2937110154065047   T   T   T
  0.6233396577019110  0.2511355886158000  0.1989772227146231   T   T   T
  0.7500000000051870  0.0000000000000000  0.1074400022508328   F   F   F
  0.7498051314765305  0.0022076635781820  0.2944971817084561   T   T   T
  0.7497176996305240  0.1241417826596125  0.1981037353967588   T   T   T
  0.8749999999714717  0.3749999999680114  0.1074400022508328   F   F   F
  0.8750196902866587  0.3728210967682351  0.2941410022192769   T   T   T
  0.8749970473746959  0.2508567589848362  0.1979461736784989   T   T   T
  0.0000000000000000  0.5000000000034603  0.1074400022508328   F   F   F
  1.0000367583836840  0.5020363505391677  0.2942206769072210   T   T   T
 -0.0001027137659337  0.6241060383490329  0.1979099014116248   T   T   T
  0.1249999999662847  0.8749999999714717  0.1074400022508328   F   F   F
  0.1248895776676891  0.8725260432360279  0.2943476913383323   T   T   T
  0.1248591597043567  0.7509611454424963  0.1979340953587843   T   T   T
  0.2500000000017266  0.5000000000034603  0.1074400022508328   F   F   F
  0.2492402528883231  0.5034851916980129  0.2935870343645578   T   T   T
  0.2500632871219814  0.6241590823408568  0.1975169359586330   T   T   T
  0.3749999999680114  0.8749999999714717  0.1074400022508328   F   F   F
  0.3750077979906007  0.8728238359382973  0.2941509543907394   T   T   T
  0.3750056043831496  0.7509338376200720  0.1980280419813285   T   T   T
  0.5000000000034603  0.5000000000034603  0.1074400022508328   F   F   F
  0.5006844523886467  0.5034115139421631  0.2936263007402720   T   T   T
  0.4999339426530519  0.6241358480258578  0.1975292703571997   T   T   T
  0.6249999999697451  0.8749999999714717  0.1074400022508328   F   F   F
  0.6251073700220364  0.8725400823851863  0.2943556798939926   T   T   T
  0.6251460731322075  0.7509498559016021  0.1979444202225988   T   T   T
  0.7500000000051870  0.5000000000034603  0.1074400022508328   F   F   F
  0.7499574897706692  0.5020031490407997  0.2942267408231584   T   T   T
  0.7500839977529991  0.6240882261461246  0.1979140680518214   T   T   T
  0.8749999999714717  0.8749999999714717  0.1074400022508328   F   F   F
  0.8749879919536283  0.8731266158351737  0.2943750850287291   T   T   T
  0.8749935933914360  0.7509933997101079  0.1981129507137722   T   T   T
  0.1249999999662847  0.1249999999662847  0.1074400022508328   F   F   F
  0.1253130286293536  0.1300712816928002  0.2898576441560355   T   T   T
  0.1249363619913674 -0.0000089202300525  0.2012822728162387   T   T   T
  0.0000000000000000  0.2500000000017266  0.1074400022508328   F   F   F
  1.0003584603776339  0.2441521058532479  0.2892211492938848   T   T   T
  0.0001037813004088  0.3748763383234371  0.2010877679521245   T   T   T
  0.3749999999680114  0.1249999999662847  0.1074400022508328   F   F   F
  0.3749396142848520  0.1216320559281780  0.2864295330890484   T   T   T
  0.3750162396853243 -0.0003135224821957  0.2008069238496160   T   T   T
  0.2500000000017266  0.2500000000017266  0.1074400022508328   F   F   F
  0.2513096924340709  0.2459649301918295  0.2942393677599663   T   T   T
  0.2509245312737561  0.3751326880328628  0.2007911506588128   T   T   T
  0.6249999999697451  0.1249999999662847  0.1074400022508328   F   F   F
  0.6245978234481248  0.1302686100517762  0.2899077345786966   T   T   T
  0.6250578738646083  0.0000007566371610  0.2012824140989369   T   T   T
  0.5000000000034603  0.2500000000017266  0.1074400022508328   F   F   F
  0.4983249051778327  0.2459207313075160  0.2943576744927547   T   T   T
  0.4989953067477712  0.3750902272748096  0.2008585055034547   T   T   T
  0.8749999999714717  0.1249999999662847  0.1074400022508328   F   F   F
  0.8749831544273489  0.1307512905000991  0.2893966390135136   T   T   T
  0.8749958612930709 -0.0000100101522598  0.2013083938775912   T   T   T
  0.7500000000051870  0.2500000000017266  0.1074400022508328   F   F   F
  0.7496533186341495  0.2442067252097247  0.2892191351684543   T   T   T
  0.7498950714693009  0.3748866624533909  0.2011119619588307   T   T   T
  0.1249999999662847  0.6249999999697451  0.1074400022508328   F   F   F
  0.1248801738422408  0.6309469918057020  0.2892302615497245   T   T   T
  0.1247725712726814  0.5002467397048014  0.2008425153722954   T   T   T
  0.0000000000000000  0.7500000000051870  0.1074400022508328   F   F   F
  0.9998437380433499  0.7439507283206045  0.2895733517765838   T   T   T
 -0.0000278859856414  0.8750389580579764  0.2012500638761144   T   T   T
  0.3749999999680114  0.6249999999697451  0.1074400022508328   F   F   F
  0.3750007045990941  0.6297186739740246  0.2888465048661426   T   T   T
  0.3749787986155997  0.4983482785298064  0.2014523996844279   T   T   T
  0.2500000000017266  0.7500000000051870  0.1074400022508328   F   F   F
  0.2500467087673942  0.7434392801912563  0.2893916103735425   T   T   T
  0.2497473591819772  0.8743963203498993  0.2009380492554801   T   T   T
  0.6249999999697451  0.6249999999697451  0.1074400022508328   F   F   F
  0.6250985152759179  0.6309094163152703  0.2892393708437464   T   T   T
  0.6251966731602594  0.5001999467058257  0.2009056689830254   T   T   T
  0.5000000000034603  0.7500000000051870  0.1074400022508328   F   F   F
  0.4999602155205026  0.7434403985860980  0.2893882640715931   T   T   T
  0.5002688580848752  0.8744083345044579  0.2009500065590860   T   T   T
  0.8749999999714717  0.6249999999697451  0.1074400022508328   F   F   F
  0.8749924675734495  0.6303595488943696  0.2893638432348532   T   T   T
  0.8749964628761803  0.4999857648585112  0.2011876322695423   T   T   T
  0.7500000000051870  0.7500000000051870  0.1074400022508328   F   F   F
  0.7501594734224791  0.7439276498850603  0.2895856861564226   T   T   T
  0.7500003181430804  0.8750364348829297  0.2012613977974897   T   T   T
  0.4246947039017065  0.2970867315769644  0.3859220434242502   T   T   T
  0.3240029535023310  0.2970756303015962  0.3857112404533130   T   T   T
  0.4584856074773447  0.2264467411163462  0.3895049635397849   T   T   T
  0.4599686996411799  0.3477405776748843  0.4199027808275405   T   T   T
  0.2901578467489712  0.2263991761561066  0.3892556319660815   T   T   T
  0.2884483252104769  0.3477710559965140  0.4195115991562954   T   T   T
 
