CONTCAR-CH2-CH2-IS                              
   1.00000000000000     
    14.4588003158999996    0.0000000000000000    0.0000000000000000
     0.0000000000000000   14.4588003158999996    0.0000000000000000
     0.0000000000000000    0.0000000000000000   18.6147003174000005
   Cu   Co   C    H 
    48    48     2     4
Selective dynamics
Direct
  0.0000000000000000  0.0000000000000000  0.1074400022508328   F   F   F
 -0.0002364624535650  0.0008095582824460  0.2982981831615837   T   T   T
  0.0000000000000000  0.1249999999662847  0.2045300007027890   F   F   F
  0.1249999999662847  0.3749999999680114  0.1074400022508328   F   F   F
  0.1230063969160963  0.3727802639857807  0.3002311012904026   T   T   T
  0.1249999999662847  0.2500000000017266  0.2045300007027890   F   F   F
  0.2500000000017266  0.0000000000000000  0.1074400022508328   F   F   F
  0.2497704595456133  0.0010084861169146  0.2981228828466598   T   T   T
  0.2500000000017266  0.1249999999662847  0.2045300007027890   F   F   F
  0.3749999999680114  0.3749999999680114  0.1074400022508328   F   F   F
  0.3754990848311762  0.3737915849233894  0.3048344050522011   T   T   T
  0.3749999999680114  0.2500000000017266  0.2045300007027890   F   F   F
  0.5000000000034603  0.0000000000000000  0.1074400022508328   F   F   F
  0.5001678079012147  0.0009896417322727  0.2981214954087268   T   T   T
  0.5000000000034603  0.1249999999662847  0.2045300007027890   F   F   F
  0.6249999999697451  0.3749999999680114  0.1074400022508328   F   F   F
  0.6261002833267505  0.3729855085239938  0.3007032446899501   T   T   T
  0.6249999999697451  0.2500000000017266  0.2045300007027890   F   F   F
  0.7500000000051870  0.0000000000000000  0.1074400022508328   F   F   F
  0.7502232017485361  0.0007233818963780  0.2983023275100737   T   T   T
  0.7500000000051870  0.1249999999662847  0.2045300007027890   F   F   F
  0.8749999999714717  0.3749999999680114  0.1074400022508328   F   F   F
  0.8750228484076390  0.3737425081095762  0.2981013052633574   T   T   T
  0.8749999999714717  0.2500000000017266  0.2045300007027890   F   F   F
  0.0000000000000000  0.5000000000034603  0.1074400022508328   F   F   F
 -0.0001455898474240  0.5010484140868786  0.2979584710069767   T   T   T
  0.0000000000000000  0.6249999999697451  0.2045300007027890   F   F   F
  0.1249999999662847  0.8749999999714717  0.1074400022508328   F   F   F
  0.1249910197403758  0.8737612477037370  0.2982938287527009   T   T   T
  0.1249999999662847  0.7500000000051870  0.2045300007027890   F   F   F
  0.2500000000017266  0.5000000000034603  0.1074400022508328   F   F   F
  0.2502709690684842  0.5011196729283691  0.2985527679201292   T   T   T
  0.2500000000017266  0.6249999999697451  0.2045300007027890   F   F   F
  0.3749999999680114  0.8749999999714717  0.1074400022508328   F   F   F
  0.3750023892296582  0.8737365084619024  0.2982283489908165   T   T   T
  0.3749999999680114  0.7500000000051870  0.2045300007027890   F   F   F
  0.5000000000034603  0.5000000000034603  0.1074400022508328   F   F   F
  0.5000317213274724  0.5019381395788748  0.2983705023917859   T   T   T
  0.5000000000034603  0.6249999999697451  0.2045300007027890   F   F   F
  0.6249999999697451  0.8749999999714717  0.1074400022508328   F   F   F
  0.6249933660082327  0.8737511381421744  0.2983020596031702   T   T   T
  0.6249999999697451  0.7500000000051870  0.2045300007027890   F   F   F
  0.7500000000051870  0.5000000000034603  0.1074400022508328   F   F   F
  0.7500159159528040  0.5008616053128800  0.2979718054225517   T   T   T
  0.7500000000051870  0.6249999999697451  0.2045300007027890   F   F   F
  0.8749999999714717  0.8749999999714717  0.1074400022508328   F   F   F
  0.8750328279262214  0.8736202043735841  0.2983033893599121   T   T   T
  0.8749999999714717  0.7500000000051870  0.2045300007027890   F   F   F
  0.1249999999662847  0.1249999999662847  0.1074400022508328   F   F   F
  0.1241486291835868  0.1276703777740743  0.2951224376792473   T   T   T
  0.1249999999662847  0.0000000000000000  0.2045300007027890   F   F   F
  0.0000000000000000  0.2500000000017266  0.1074400022508328   F   F   F
  0.9984318699770849  0.2440145258996028  0.2953440279560696   T   T   T
  0.0000000000000000  0.3749999999680114  0.2045300007027890   F   F   F
  0.3749999999680114  0.1249999999662847  0.1074400022508328   F   F   F
  0.3749635641115588  0.1272966030068882  0.2949047048478859   T   T   T
  0.3749999999680114  0.0000000000000000  0.2045300007027890   F   F   F
  0.2500000000017266  0.2500000000017266  0.1074400022508328   F   F   F
  0.2472773306999747  0.2428897636139395  0.2984921919250962   T   T   T
  0.2500000000017266  0.3749999999680114  0.2045300007027890   F   F   F
  0.6249999999697451  0.1249999999662847  0.1074400022508328   F   F   F
  0.6257959435057662  0.1274788067871837  0.2950146513770235   T   T   T
  0.6249999999697451  0.0000000000000000  0.2045300007027890   F   F   F
  0.5000000000034603  0.2500000000017266  0.1074400022508328   F   F   F
  0.5022079615972355  0.2426886498742564  0.2986307084296742   T   T   T
  0.5000000000034603  0.3749999999680114  0.2045300007027890   F   F   F
  0.8749999999714717  0.1249999999662847  0.1074400022508328   F   F   F
  0.8748749772150020  0.1289764990331670  0.2950122020360162   T   T   T
  0.8749999999714717  0.0000000000000000  0.2045300007027890   F   F   F
  0.7500000000051870  0.2500000000017266  0.1074400022508328   F   F   F
  0.7513358368037216  0.2442828736292814  0.2952852144921466   T   T   T
  0.7500000000051870  0.3749999999680114  0.2045300007027890   F   F   F
  0.1249999999662847  0.6249999999697451  0.1074400022508328   F   F   F
  0.1248366359000329  0.6290474746484443  0.2947159032557941   T   T   T
  0.1249999999662847  0.5000000000034603  0.2045300007027890   F   F   F
  0.0000000000000000  0.7500000000051870  0.1074400022508328   F   F   F
  1.0000497360405918  0.7456574962584646  0.2950620755845157   T   T   T
  0.0000000000000000  0.8749999999714717  0.2045300007027890   F   F   F
  0.3749999999680114  0.6249999999697451  0.1074400022508328   F   F   F
  0.3749218822039343  0.6292340507532315  0.2948471606397105   T   T   T
  0.3749999999680114  0.5000000000034603  0.2045300007027890   F   F   F
  0.2500000000017266  0.7500000000051870  0.1074400022508328   F   F   F
  0.2500677034827279  0.7454086065327543  0.2952718789693868   T   T   T
  0.2500000000017266  0.8749999999714717  0.2045300007027890   F   F   F
  0.6249999999697451  0.6249999999697451  0.1074400022508328   F   F   F
  0.6253141534318826  0.6291676062141590  0.2948287968474093   T   T   T
  0.6249999999697451  0.5000000000034603  0.2045300007027890   F   F   F
  0.5000000000034603  0.7500000000051870  0.1074400022508328   F   F   F
  0.4999488534790004  0.7453607484744765  0.2953196482709853   T   T   T
  0.5000000000034603  0.8749999999714717  0.2045300007027890   F   F   F
  0.8749999999714717  0.6249999999697451  0.1074400022508328   F   F   F
  0.8749944210965607  0.6293073486252450  0.2950389097758920   T   T   T
  0.8749999999714717  0.5000000000034603  0.2045300007027890   F   F   F
  0.7500000000051870  0.7500000000051870  0.1074400022508328   F   F   F
  0.7500028805914515  0.7456888676543499  0.2950598130249801   T   T   T
  0.7500000000051870  0.8749999999714717  0.2045300007027890   F   F   F
  0.5039462568199136  0.3514391686560749  0.3548831087792803   T   T   T
  0.2461735769182472  0.3536076816634756  0.3534401903982721   T   T   T
  0.4965487529309920  0.2793439231998400  0.3852866698259579   T   T   T
  0.5079489828009308  0.3974712786150186  0.4020935872460275   T   T   T
  0.2571268885064667  0.2821983784669670  0.3841722808549947   T   T   T
  0.2388209869641126  0.3991305735676719  0.4007844590123886   T   T   T
 