CONTCAR-CH2CH2O               
   1.00000000000000     
    14.4588003158999996    0.0000000000000000    0.0000000000000000
     0.0000000000000000   14.4588003158999996    0.0000000000000000
     0.0000000000000000    0.0000000000000000   18.6147003174000005
   Cu   Co   C    H    O 
    48    48    28     4     1
Selective dynamics
Direct
  0.0000000000000000  0.0000000000000000  0.1074400022508328   F   F   F
  0.0003378302174610  0.9960209365519574  0.2944288497694885   F   F   F
  0.0004156855224196  0.1235852302035312  0.1955327675093059   F   F   F
  0.1249999999662847  0.3749999999680114  0.1074400022508328   F   F   F
  0.1314112592318324  0.3648516196840177  0.3029812111049139   F   F   F
  0.1255066724892586  0.2498182654365877  0.1983443572883417   F   F   F
  0.2500000000017266  0.0000000000000000  0.1074400022508328   F   F   F
  0.2490540801913426  0.9999359441935596  0.2944281172811429   F   F   F
  0.2498459415535237  0.1223663109843898  0.1976442486428454   F   F   F
  0.3749999999680114  0.3749999999680114  0.1074400022508328   F   F   F
  0.3760687443960151  0.3791195157024703  0.2770325592730458   F   F   F
  0.3739160564670030  0.2462568736179733  0.2004577473367277   F   F   F
  0.5000000000034603  0.0000000000000000  0.1074400022508328   F   F   F
  0.5014013864275313  0.9939944894372559  0.3093525985528274   F   F   F
  0.4993824191105958  0.1253704278272778  0.2028232508942764   F   F   F
  0.6249999999697451  0.3749999999680114  0.1074400022508328   F   F   F
  0.6233087100433821  0.3842175575732298  0.2875293885276946   F   F   F
  0.6267827517350497  0.2486632065000620  0.2028582290745859   F   F   F
  0.7500000000051870  0.0000000000000000  0.1074400022508328   F   F   F
  0.7565559263781410  0.0066948528040811  0.2942233043087228   F   F   F
  0.7508171610722485  0.1258119757630141  0.1993596067900683   F   F   F
  0.8749999999714717  0.3749999999680114  0.1074400022508328   F   F   F
  0.8742546061246728  0.3735685885096132  0.3012116726001040   F   F   F
  0.8742275716322752  0.2518411318244063  0.1993021679551106   F   F   F
  0.0000000000000000  0.5000000000034603  0.1074400022508328   F   F   F
  0.0036356785359501  0.4964427823066302  0.2952982248528215   F   F   F
  0.9982594363359496  0.6237492013241734  0.1979730583519768   F   F   F
  0.1249999999662847  0.8749999999714717  0.1074400022508328   F   F   F
  0.1252471470919261  0.8740764016920224  0.2933398260785083   F   F   F
  0.1265387762568579  0.7516571764444748  0.1982613334813124   F   F   F
  0.2500000000017266  0.5000000000034603  0.1074400022508328   F   F   F
  0.2416929344296719  0.5038088781578480  0.2970702295721068   F   F   F
  0.2446661236321788  0.6252089350888426  0.1975996707021608   F   F   F
  0.3749999999680114  0.8749999999714717  0.1074400022508328   F   F   F
  0.3754677272471767  0.8646939058320626  0.3055642218411023   F   F   F
  0.3731406363529004  0.7514324578879439  0.1992873343418538   F   F   F
  0.5000000000034603  0.5000000000034603  0.1074400022508328   F   F   F
  0.4777241504445229  0.5091108350909721  0.3228988105372963   F   F   F
  0.4997599454108297  0.6208594175638211  0.1982699611187186   F   F   F
  0.6249999999697451  0.8749999999714717  0.1074400022508328   F   F   F
  0.6361853569614411  0.8868747905896583  0.2894326267147989   F   F   F
  0.6228768327427403  0.7485166808990229  0.2023870640825152   F   F   F
  0.7500000000051870  0.5000000000034603  0.1074400022508328   F   F   F
  0.7571924948114699  0.5001127505903966  0.2863410617860183   F   F   F
  0.7498195811629103  0.6266277849150583  0.1995212449802821   F   F   F
  0.8749999999714717  0.8749999999714717  0.1074400022508328   F   F   F
  0.8746428041442940  0.8739370726352220  0.2946692729026381   F   F   F
  0.8740779457557366  0.7493698055343074  0.1989844166752235   F   F   F
  0.1249999999662847  0.1249999999662847  0.1074400022508328   F   F   F
  0.1179007420981435  0.1236849443669854  0.2885346439898484   F   F   F
  0.1246245520254021  0.9984044683767834  0.2002181182878218   F   F   F
  0.0000000000000000  0.2500000000017266  0.1074400022508328   F   F   F
  0.9996531607102028  0.2429992528217610  0.2887944663368174   F   F   F
  0.0014666552172855  0.3739648037393195  0.2031651019387297   F   F   F
  0.3749999999680114  0.1249999999662847  0.1074400022508328   F   F   F
  0.3709281379500169  0.1191157336657582  0.2931822815383569   F   F   F
  0.3779259631192531  0.9940048254543328  0.2056522804706589   F   F   F
  0.2500000000017266  0.2500000000017266  0.1074400022508328   F   F   F
  0.2376142222110857  0.2263630101411209  0.2992899582878152   F   F   F
  0.2462606599774801  0.3732133606811772  0.1946516367231013   F   F   F
  0.6249999999697451  0.1249999999662847  0.1074400022508328   F   F   F
  0.6255543735580105  0.1230753143550842  0.2971261735900725   F   F   F
  0.6236193497742093  0.0056210607466625  0.1989629602279805   F   F   F
  0.5000000000034603  0.2500000000017266  0.1074400022508328   F   F   F
  0.5016799448804221  0.2566502482996782  0.2991536430800963   F   F   F
  0.5025921372757409  0.3742704031766309  0.1946635981322942   F   F   F
  0.8749999999714717  0.1249999999662847  0.1074400022508328   F   F   F
  0.8854900116464322  0.1248416471195171  0.2888844532649131   F   F   F
  0.8765983978491292  0.9987941863197136  0.1997424756953379   F   F   F
  0.7500000000051870  0.2500000000017266  0.1074400022508328   F   F   F
  0.7688594046142825  0.2286929651940213  0.3039415954186353   F   F   F
  0.7513933915535418  0.3735470134627761  0.1959776935795219   F   F   F
  0.1249999999662847  0.6249999999697451  0.1074400022508328   F   F   F
  0.1179696596392148  0.6293185084306927  0.2892067788900334   F   F   F
  0.1239829063769946  0.4967723064112164  0.2011520091060959   F   F   F
  0.0000000000000000  0.7500000000051870  0.1074400022508328   F   F   F
  0.0028039002271001  0.7479109601513656  0.2887569280091355   F   F   F
  0.9994503017312724  0.8738590080691182  0.1995729678819274   F   F   F
  0.3749999999680114  0.6249999999697451  0.1074400022508328   F   F   F
  0.3656484382401857  0.6266583526226412  0.2854614614248518   F   F   F
  0.3737604303702966  0.5063020808814613  0.1966320032880446   F   F   F
  0.2500000000017266  0.7500000000051870  0.1074400022508328   F   F   F
  0.2425869563705163  0.7387484459728171  0.2999578595008927   F   F   F
  0.2521720356954447  0.8740851926916235  0.2019139084038883   F   F   F
  0.6249999999697451  0.6249999999697451  0.1074400022508328   F   F   F
  0.6172319123222039  0.6176532272494626  0.2951254102961443   F   F   F
  0.6246183013711999  0.5026637882230887  0.1965070810534471   F   F   F
  0.5000000000034603  0.7500000000051870  0.1074400022508328   F   F   F
  0.4896069336047262  0.7282658446315224  0.2947808123130073   F   F   F
  0.4998497178335199  0.8753146198860975  0.1991867874825459   F   F   F
  0.8749999999714717  0.6249999999697451  0.1074400022508328   F   F   F
  0.8870273243513225  0.6394526120324500  0.3088543872401246   F   F   F
  0.8781824892909640  0.4976960678843767  0.1979535415233045   F   F   F
  0.7500000000051870  0.7500000000051870  0.1074400022508328   F   F   F
  0.7518347963826528  0.7518128157542563  0.2931060512192900   F   F   F
  0.7512429604022586  0.8750124910811934  0.1977370200519246   F   F   F
  0.4462199041138533  0.3340135944240998  0.3995931555646237   F   F   F
  0.3975017744946214  0.4181236472119636  0.3813919017244345   F   F   F
  0.5474961906714242  0.3309627906943149  0.4020472345248791   F   F   F
  0.6063364273780749  0.4161583440622110  0.4052532712739918   F   F   F
  0.7401961018309748  0.3137013620811757  0.3817971801169548   F   F   F
  0.4947376745851102  0.7194401514037025  0.4042951379195401   F   F   F
  0.4758751951450009  0.8106366373474714  0.3738831180637021   F   F   F
  0.5435046989518497  0.8800922228801653  0.3719798866002648   F   F   F
  0.5716497360083963  0.5094390891458289  0.3980019213110353   F   F   F
  0.6283289738699551  0.5912445998021596  0.4059166245400547   F   F   F
  0.5937166255455466  0.6891304126190718  0.4033316332950605   F   F   F
  0.6629596041857653  0.7660829391820556  0.4015061680023777   F   F   F
  0.6324474080802744  0.8591539300469719  0.3938058038961501   F   F   F
  0.7078049525743282  0.4050505971420719  0.3994294404041625   F   F   F
  0.7657780436322810  0.4831681460951600  0.3913195426247711   F   F   F
  0.7305153816061036  0.5738343627582267  0.3982294060584479   F   F   F
  0.7900780343658695  0.6535047740154454  0.3813009421028823   F   F   F
  0.7577913902272826  0.7407102046740306  0.3917249403583085   F   F   F
  0.2967038645987827  0.2537822139811325  0.3858677400862476   F   F   F
  0.2517738967463572  0.3342287575368061  0.3692281989500685   F   F   F
  0.3015347738461713  0.4216536582074681  0.3674002234765723   F   F   F
  0.3933502991377722  0.2458737989619948  0.3974543016318606   F   F   F
  0.4409619083717118  0.1623955717657068  0.3728105226001617   F   F   F
  0.5377194577621935  0.1576717602489808  0.3737661442794931   F   F   F
  0.5896729308300976  0.2388438363628111  0.3953878895265674   F   F   F
  0.6876080928847799  0.2379147216701654  0.3828596971243172   F   F   F
  0.4234343143444050  0.6739197401065766  0.4521678524300228   T   T   T
  0.3264943049863120  0.6587956989827575  0.4214283955180633   T   T   T
  0.4178747138065475  0.7174286407822308  0.5008049676195583   T   T   T
  0.4479573149645475  0.6052702833001149  0.4693236979034623   T   T   T
  0.3332853430135430  0.6004336186396415  0.3799953623202725   T   T   T
  0.2831487153668562  0.6242090708225447  0.4626277835453720   T   T   T
  0.2791781916050767  0.7358118146565432  0.3934927855799923   T   T   T
 
