CONTCAR-CH2-CHO-IS                                  
   1.00000000000000     
    14.4588003158999996    0.0000000000000000    0.0000000000000000
     0.0000000000000000   14.4588003158999996    0.0000000000000000
     0.0000000000000000    0.0000000000000000   18.6147003174000005
   Cu   Co   C    H    O 
    48    48    28     3     1
Selective dynamics
Direct
  0.0000000000000000  0.0000000000000000  0.1074400022508328   F   F   F
  0.9985899088368981  0.9954931284073325  0.2942897085277991   F   F   F
  0.0000641922615898  0.1240985203065321  0.1949788726519728   F   F   F
  0.1249999999662847  0.3749999999680114  0.1074400022508328   F   F   F
  0.1331759739563410  0.3662074373760547  0.3017697097395242   F   F   F
  0.1262144634994371  0.2498569299938111  0.1985135068366759   F   F   F
  0.2500000000017266  0.0000000000000000  0.1074400022508328   F   F   F
  0.2479565880771872  0.0003127632728521  0.2947436601725784   F   F   F
  0.2490095877406517  0.1221625018760761  0.1975289903809738   F   F   F
  0.3749999999680114  0.3749999999680114  0.1074400022508328   F   F   F
  0.3758409605186230  0.3777576203815158  0.2751737873357811   F   F   F
  0.3732103164050216  0.2451126169677309  0.2001151789727373   F   F   F
  0.5000000000034603  0.0000000000000000  0.1074400022508328   F   F   F
  0.5027430530421810  0.9958888241923276  0.3089427068460324   F   F   F
  0.4995086760202199  0.1254589030686759  0.2026577025205398   F   F   F
  0.6249999999697451  0.3749999999680114  0.1074400022508328   F   F   F
  0.6216119731931400  0.3843640058083153  0.2863894250501957   F   F   F
  0.6265355856050476  0.2488445894581730  0.2024689426807242   F   F   F
  0.7500000000051870  0.0000000000000000  0.1074400022508328   F   F   F
  0.7573322719050140  0.0067987386515611  0.2936606787428602   F   F   F
  0.7512774968344402  0.1259805729185288  0.1988260539342974   F   F   F
  0.8749999999714717  0.3749999999680114  0.1074400022508328   F   F   F
  0.8734777269335794  0.3754873755486514  0.3018264945753515   F   F   F
  0.8743406195635544  0.2524267530068229  0.1992189527892378   F   F   F
  0.0000000000000000  0.5000000000034603  0.1074400022508328   F   F   F
  0.0038697922964701  0.4964831765554294  0.2945495442193149   F   F   F
  0.9993959289894860  0.6231131211898742  0.1983472899850582   F   F   F
  0.1249999999662847  0.8749999999714717  0.1074400022508328   F   F   F
  0.1234244511329550  0.8763767357866712  0.2923818786403345   F   F   F
  0.1252313580941333  0.7505578864162814  0.1967599121715722   F   F   F
  0.2500000000017266  0.5000000000034603  0.1074400022508328   F   F   F
  0.2483337969037862  0.5060209430100429  0.2981560308138569   F   F   F
  0.2491596252336521  0.6249972267120896  0.1995540140425121   F   F   F
  0.3749999999680114  0.8749999999714717  0.1074400022508328   F   F   F
  0.3731143528469545  0.8671472407262257  0.3059164458755248   F   F   F
  0.3725943381657331  0.7491246330493766  0.1996235722293420   F   F   F
  0.5000000000034603  0.5000000000034603  0.1074400022508328   F   F   F
  0.4748014890109573  0.5066699276478417  0.3186844728323734   F   F   F
  0.4951347283308536  0.6207333460365874  0.2011474571432572   F   F   F
  0.6249999999697451  0.8749999999714717  0.1074400022508328   F   F   F
  0.6359187445059931  0.8878306425172653  0.2896077444808043   F   F   F
  0.6248629323784627  0.7495930624083726  0.1998399597555292   F   F   F
  0.7500000000051870  0.5000000000034603  0.1074400022508328   F   F   F
  0.7552037176903426  0.5010849912488240  0.2850451988427523   F   F   F
  0.7497797749799346  0.6272810654829257  0.1992556409587820   F   F   F
  0.8749999999714717  0.8749999999714717  0.1074400022508328   F   F   F
  0.8739630535003684  0.8736268178970690  0.2942848055269280   F   F   F
  0.8733771547925215  0.7494130447298986  0.1987155755681655   F   F   F
  0.1249999999662847  0.1249999999662847  0.1074400022508328   F   F   F
  0.1146944258751574  0.1223653088652910  0.2887055353947900   F   F   F
  0.1236330778380079  0.9991706177633830  0.1994898489749630   F   F   F
  0.0000000000000000  0.2500000000017266  0.1074400022508328   F   F   F
  0.9999480095255819  0.2443419726798126  0.2884205727348430   F   F   F
  0.0014695214732612  0.3741707925111797  0.2029256947096485   F   F   F
  0.3749999999680114  0.1249999999662847  0.1074400022508328   F   F   F
  0.3702812148576129  0.1181427989759882  0.2927821077589812   F   F   F
  0.3773160882806508  0.9952362981446186  0.2050560693730006   F   F   F
  0.2500000000017266  0.2500000000017266  0.1074400022508328   F   F   F
  0.2344599695191576  0.2215102117267804  0.3013872456443920   F   F   F
  0.2462428507598062  0.3753515548702211  0.1946974333569997   F   F   F
  0.6249999999697451  0.1249999999662847  0.1074400022508328   F   F   F
  0.6273814424674597  0.1229803383986265  0.2963137300505210   F   F   F
  0.6238288615268388  0.0058820523153926  0.1988309279927805   F   F   F
  0.5000000000034603  0.2500000000017266  0.1074400022508328   F   F   F
  0.5008155356536292  0.2547410778725734  0.2993497600343815   F   F   F
  0.5019499160292824  0.3742206877217740  0.1940494425084154   F   F   F
  0.8749999999714717  0.1249999999662847  0.1074400022508328   F   F   F
  0.8864546161389555  0.1253158276364701  0.2886685382378857   F   F   F
  0.8765983944979396  0.9992112223148979  0.1992253770407686   F   F   F
  0.7500000000051870  0.2500000000017266  0.1074400022508328   F   F   F
  0.7697075637973896  0.2280976375028345  0.3032925601449108   F   F   F
  0.7512340078148654  0.3735735546407710  0.1959052749640833   F   F   F
  0.1249999999662847  0.6249999999697451  0.1074400022508328   F   F   F
  0.1176644343388844  0.6297402223521971  0.2915983311379051   F   F   F
  0.1252404387627450  0.4973703656207960  0.2012689848831215   F   F   F
  0.0000000000000000  0.7500000000051870  0.1074400022508328   F   F   F
  0.0017559025699825  0.7489288952930195  0.2872745886118864   F   F   F
  0.9986637918705341  0.8740625592915165  0.1990511819439647   F   F   F
  0.3749999999680114  0.6249999999697451  0.1074400022508328   F   F   F
  0.3599794458780536  0.6417135907680205  0.3109669719748993   F   F   F
  0.3738042340744059  0.5057683020501571  0.1951140970190721   F   F   F
  0.2500000000017266  0.7500000000051870  0.1074400022508328   F   F   F
  0.2430761417291123  0.7525202227532404  0.2905899970757133   F   F   F
  0.2522505831059405  0.8754887539728387  0.2015790915923361   F   F   F
  0.6249999999697451  0.6249999999697451  0.1074400022508328   F   F   F
  0.6142653831492026  0.6235683345065226  0.2931064150140799   F   F   F
  0.6232867595948974  0.5040482073748933  0.1957610885025858   F   F   F
  0.5000000000034603  0.7500000000051870  0.1074400022508328   F   F   F
  0.4955050007484445  0.7446809150218883  0.2865119455462306   F   F   F
  0.4998025793164516  0.8766992249374965  0.1997226186089307   F   F   F
  0.8749999999714717  0.6249999999697451  0.1074400022508328   F   F   F
  0.8869325402900401  0.6397113732882076  0.3079502266859393   F   F   F
  0.8777573172211390  0.4981153642548790  0.1976608578252126   F   F   F
  0.7500000000051870  0.7500000000051870  0.1074400022508328   F   F   F
  0.7498865731954183  0.7524221891203808  0.2937698623056733   F   F   F
  0.7512267451091290  0.8755791730496867  0.1975665527303931   F   F   F
  0.4455641819974403  0.3293660900205992  0.3980573456134806   F   F   F
  0.3961452156576826  0.4127880559631762  0.3792029422863976   F   F   F
  0.5468165508223635  0.3273822880610169  0.3999881478875054   F   F   F
  0.6050052371661252  0.4132447837314217  0.4026078045569079   F   F   F
  0.7394566316845896  0.3109867065265703  0.3811034941753704   F   F   F
  0.4947546669470171  0.7174367185289938  0.3951908184542390   F   F   F
  0.4728449155608985  0.8130547036936804  0.3726500521490905   F   F   F
  0.5453770054940037  0.8780793080525982  0.3728552099917692   F   F   F
  0.5701081007630009  0.5063156243074616  0.3943583369984012   F   F   F
  0.6272753085821421  0.5876953911062657  0.4021091306914499   F   F   F
  0.5933501315971341  0.6859508500448825  0.3985400214205725   F   F   F
  0.6635769890684244  0.7624991894266842  0.4003312566062647   F   F   F
  0.6327730328628789  0.8555259041133780  0.3934329424818799   F   F   F
  0.7065004478039327  0.4021704700339370  0.3976907663884006   F   F   F
  0.7652487844219777  0.4796921625404735  0.3896739734396348   F   F   F
  0.7298794988448591  0.5703325091716067  0.3959415194919700   F   F   F
  0.7899683039194798  0.6500054322315947  0.3801315209928688   F   F   F
  0.7583859459149664  0.7370093991654016  0.3921003599035444   F   F   F
  0.2964870468697285  0.2469832999689743  0.3873780655683348   F   F   F
  0.2514554185684048  0.3268971424636504  0.3702363269736395   F   F   F
  0.3001588321226407  0.4131364936369337  0.3656030171304039   F   F   F
  0.3934406705498148  0.2406007744570999  0.3975134508343103   F   F   F
  0.4416943596648579  0.1580166898348310  0.3721675752602209   F   F   F
  0.5383607760204114  0.1538691384870958  0.3726724768043752   F   F   F
  0.5897199567058493  0.2353800461706967  0.3942152216652417   F   F   F
  0.6876277204744028  0.2346845237983075  0.3819557613889302   F   F   F
  0.4145266601349675  0.6604600583018225  0.4115000590933207   T   T   T
  0.2584701033077721  0.6125890478792115  0.3717267919891114   T   T   T
  0.3621201132777117  0.7010824674448628  0.4402431295350269   T   T   T
  0.4277129727092088  0.5935589077577816  0.4370471728499155   T   T   T
  0.2632453301424249  0.5769413439552764  0.4240972567272223   T   T   T
  0.1922430391857759  0.6776726169263726  0.3712881348049972   T   T   T
 
