CONTCAR-CH2
 1.000000
   14.4588003158999996    0.0000000000000000    0.0000000000000000
    0.0000000000000000   14.4588003158999996    0.0000000000000000
    0.0000000000000000    0.0000000000000000   18.6147003174000005
   Cu   Co   C    H 
    48    48    27     2
Selective Dynamics
Cartesian
    0.0000000000000000    0.0000000000000000    1.9999634440000342    F  F  F    Cu001
    0.0179365117989648   14.4454903525122500    5.4761266809531701    F  F  F    Cu002
    0.0114864642905873    1.7882025732091931    3.6496834344582716    F  F  F    Cu003
    1.8073500390000172    5.4220501179999836    1.9999634440000342    F  F  F    Cu004
    1.9232375396687424    5.3436651626964045    5.6204560905891778    F  F  F    Cu005
    1.8103161085967194    3.6227238452098822    3.6796073061190668    F  F  F    Cu006
    3.6147000789999648    0.0000000000000000    1.9999634440000342    F  F  F    Cu007
    3.5879543606326827    0.0095635902217316    5.4852718198117056    F  F  F    Cu008
    3.6161819974642722    1.7804863063032041    3.6807907543780414    F  F  F    Cu009
    5.4220501179999836    5.4220501179999836    1.9999634440000342    F  F  F    Cu010
    5.4109922890022242    5.4694808035729086    5.1419401877800865    F  F  F    Cu011
    5.4143418909024348    3.5578488916331481    3.7189733339389757    F  F  F    Cu012
    7.2294001580000318    0.0000000000000000    1.9999634440000342    F  F  F    Cu013
    7.2125913825434056   14.4217880817574446    5.7368645701285761    F  F  F    Cu014
    7.2217157764214841    1.8090275113451582    3.7756187837286368    F  F  F    Cu015
    9.0367501970000497    5.4220501179999836    1.9999634440000342    F  F  F    Cu016
    9.0494438528296737    5.5238116759055824    5.3062755619343696    F  F  F    Cu017
    9.0515320438218776    3.5901472136760391    3.7488080766371761    F  F  F    Cu018
   10.8441002369999975    0.0000000000000000    1.9999634440000342    F  F  F    Cu019
   10.9224894024624000    0.0834541287514218    5.4634869902845056    F  F  F    Cu020
   10.8542065808439183    1.8170050427974711    3.6956638924825844    F  F  F    Cu021
   12.6514502760000145    5.4220501179999836    1.9999634440000342    F  F  F    Cu022
   12.6571770333258637    5.3572293077993862    5.5631084617632753    F  F  F    Cu023
   12.6650906472447797    3.6339809540499264    3.6832137094196726    F  F  F    Cu024
    0.0000000000000000    7.2294001580000318    1.9999634440000342    F  F  F    Cu025
    0.0291862729129677    7.2181558384032876    5.4821498008927394    F  F  F    Cu026
   14.4214527222930133    9.0189712411790914    3.7076018260620152    F  F  F    Cu027
    1.8073500390000172   12.6514502760000145    1.9999634440000342    F  F  F    Cu028
    1.8084572986389060   12.6285495776679895    5.4773282558567749    F  F  F    Cu029
    1.7994142124266184   10.8637360951783357    3.6603664288558351    F  F  F    Cu030
    3.6147000789999648    7.2294001580000318    1.9999634440000342    F  F  F    Cu031
    3.5835633635125754    7.4147247397574052    5.5813813686254612    F  F  F    Cu032
    3.5988166590551183    9.0214475304005308    3.6845129069828895    F  F  F    Cu033
    5.4220501179999836   12.6514502760000145    1.9999634440000342    F  F  F    Cu034
    5.2827828970665625   12.5487039618206087    5.6560478876300104    F  F  F    Cu035
    5.4016585711451208   10.8687002580998247    3.6576635021026145    F  F  F    Cu036
    7.2294001580000318    7.2294001580000318    1.9999634440000342    F  F  F    Cu037
    6.9664386598443855    7.3139560792169718    5.8032817950632367    F  F  F    Cu038
    7.2168068105307475    8.9935429734406274    3.7257353681808345    F  F  F    Cu039
    9.0367501970000497   12.6514502760000145    1.9999634440000342    F  F  F    Cu040
    9.1354714963367289   12.8132389464056757    5.4787377341008510    F  F  F    Cu041
    9.0314275029657516   10.8447941274226043    3.7492879218645201    F  F  F    Cu042
   10.8441002369999975    7.2294001580000318    1.9999634440000342    F  F  F    Cu043
   10.9724655655665551    7.2152964476349881    5.2770352387348822    F  F  F    Cu044
   10.8555429572488791    9.0741569434300171    3.6995072243480611    F  F  F    Cu045
   12.6514502760000145   12.6514502760000145    1.9999634440000342    F  F  F    Cu046
   12.6820368065538212   12.6759144804937289    5.4715571162581922    F  F  F    Cu047
   12.6675746670417908   10.8483649045933550    3.6822968032743106    F  F  F    Cu048
    1.8073500390000172    1.8073500390000172    1.9999634440000342    F  F  F    Co001
    1.7471839122500439    1.8127286382172390    5.3636813013935960    F  F  F    Co002
    1.8080844888592458   14.4411977539170842    3.7255160221959192    F  F  F    Co003
    0.0000000000000000    3.6147000789999648    1.9999634440000342    F  F  F    Co004
    0.0230789813608197    3.5119038529237310    5.3728842730613087    F  F  F    Co005
    0.0307866850242798    5.4227887569977646    3.7878768002934060    F  F  F    Co006
    5.4220501179999836    1.8073500390000172    1.9999634440000342    F  F  F    Co007
    5.3625495804507395    1.7399600562909312    5.4710959304959230    F  F  F    Co008
    5.4465377434582845   14.4083304878064702    3.8027004662197976    F  F  F    Co009
    3.6147000789999648    3.6147000789999648    1.9999634440000342    F  F  F    Co010
    3.4524708293013902    3.3613268298305679    5.5242274948762704    F  F  F    Co011
    3.5580740745047410    5.4118825536710427    3.6231525654982035    F  F  F    Co012
    9.0367501970000497    1.8073500390000172    1.9999634440000342    F  F  F    Co013
    9.0684078981994851    1.7797353474673008    5.4955138797654222    F  F  F    Co014
    9.0162590383146615    0.0545834001037364    3.7180360855070340    F  F  F    Co015
    7.2294001580000318    3.6147000789999648    1.9999634440000342    F  F  F    Co016
    7.2575261411682224    3.7293618212244297    5.5638740927904742    F  F  F    Co017
    7.2597586700972085    5.4242168298421189    3.6210740251425708    F  F  F    Co018
   12.6514502760000145    1.8073500390000172    1.9999634440000342    F  F  F    Co019
   12.7666979044907158    1.8355661923703783    5.3708475141099203    F  F  F    Co020
   12.6783363795527411    0.0015825064630130    3.7126443591814029    F  F  F    Co021
   10.8441002369999975    3.6147000789999648    1.9999634440000342    F  F  F    Co022
   11.0708341862600754    3.3791955904672784    5.5736459622987047    F  F  F    Co023
   10.8758331006361946    5.3781641449291397    3.6270552505836156    F  F  F    Co024
    1.8073500390000172    9.0367501970000497    1.9999634440000342    F  F  F    Co025
    1.7419787821726305    9.1384893343555582    5.3715604216885771    F  F  F    Co026
    1.8139885467098189    7.2027968977841397    3.7614445323145675    F  F  F    Co027
    0.0000000000000000   10.8441002369999975    1.9999634440000342    F  F  F    Co028
    0.0279419128467915   10.8021294438937989    5.3929276561069237    F  F  F    Co029
    0.0002942127100853   12.6495499232483901    3.7250477781211333    F  F  F    Co030
    5.4220501179999836    9.0367501970000497    1.9999634440000342    F  F  F    Co031
    5.3342193715935800    9.2593769405962174    5.5115328979890981    F  F  F    Co032
    5.4188837563695396    7.3316216982400233    3.6497118350299558    F  F  F    Co033
    3.6147000789999648   10.8441002369999975    1.9999634440000342    F  F  F    Co034
    3.5313674158832695   10.7584388092036214    5.3709735766630020    F  F  F    Co035
    3.6193098609595640   12.6570102168974667    3.7395912525071080    F  F  F    Co036
    9.0367501970000497    9.0367501970000497    1.9999634440000342    F  F  F    Co037
    9.0033920961749150    8.9666557380646719    5.4526041133814278    F  F  F    Co038
    9.0189954134283479    7.2769013974689223    3.6525582858437438    F  F  F    Co039
    7.2294001580000318   10.8441002369999975    1.9999634440000342    F  F  F    Co040
    7.1293056938284858   10.7560054939800498    5.3571863790332372    F  F  F    Co041
    7.2287152147506317   12.6749492028725346    3.7140805710620284    F  F  F    Co042
   12.6514502760000145    9.0367501970000497    1.9999634440000342    F  F  F    Co043
   12.6856450668178251    9.2975787107694430    5.7535732159165693    F  F  F    Co044
   12.7016992288364552    7.2012821220124783    3.6605753004453585    F  F  F    Co045
   10.8441002369999975   10.8441002369999975    1.9999634440000342    F  F  F    Co046
   10.9295509870665466   10.9543075497908884    5.4021757261419445    F  F  F    Co047
   10.8471957875730798   12.6791589206091810    3.7041353228752443    F  F  F    Co048
    6.5073813580269757    4.8579876251405505    7.4054356437698532    F  F  F     C001
    5.8225118557537208    6.0805567411164709    7.0767395647277276    F  F  F     C002
    7.9563508089752126    4.8233309479430746    7.4662691052243986    F  F  F     C003
    8.7437570309072541    6.0807030254631478    7.5114019535297851    F  F  F     C004
    5.7781285211237883    9.5165519758312307    7.4802729235570107    T  T  T     C005
    6.9174565317146426   10.4191699380042060    7.3917664445575912    F  F  F     C006
    6.6266104695316077   11.7836802337525395    6.9188999999104315    F  F  F     C007
    7.6239100487083560   12.7970244732488734    6.9717143393500587    F  F  F     C008
    8.1499874180058143    7.3823164719062628    7.3767987555655186    F  F  F     C009
    8.8793390537846939    8.6251758996808494    7.5257550085542855    F  F  F     C010
    8.3409884754510095   10.0220737586742228    7.5564312948560817    F  F  F     C011
    9.3081082402024169   11.1468446986921830    7.6047414813845124    F  F  F     C012
    8.8534839552166673   12.4704338466160056    7.4561989878662605    F  F  F     C013
   10.2148217614464354    5.9890697286675181    7.3789045754018359    F  F  F     C014
   10.9637941289035687    7.1717096948098167    7.2201143761630782    F  F  F     C015
   10.3574912836178701    8.4433356252461245    7.3418771145599582    F  F  F     C016
   11.1725350701783146    9.6145355070700909    7.0152331147018767    F  F  F     C017
   10.6515012181454392   10.8494892260278135    7.2255392013386048    F  F  F     C018
    4.3538570543491177    3.7254463841487571    7.1008017906746597    F  F  F     C019
    3.7212010776606426    4.9111438851459033    6.8252694957042639    F  F  F     C020
    4.4406604616694541    6.1862352860257879    6.8404390903330841    F  F  F     C021
    5.7514310967406903    3.5875576791377717    7.3424484103841126    F  F  F     C022
    6.4460533642112381    2.3677876995842344    6.9276491520467527    F  F  F     C023
    7.8542642474151165    2.3203607880125814    6.9448676501799191    F  F  F     C024
    8.5908608865742782    3.5116722326888588    7.3377788736451715    F  F  F     C025
   10.0046875770823220    3.5613802443127018    7.0892747318808986    F  F  F     C026
   10.7370188280584564    4.6823124844324768    7.0365389556389557    F  F  F     C027
    4.8585351039920592   10.0206350241697315    7.8073103659695331    T  T  T     H001
    5.9387133562924923    8.5494932012066069    7.9625482436202635    T  T  T     H002
