CONTCAR-CH3CH2O              
   1.00000000000000     
    14.4588003158999996    0.0000000000000000    0.0000000000000000
     0.0000000000000000   14.4588003158999996    0.0000000000000000
     0.0000000000000000    0.0000000000000000   18.6147003174000005
   Cu   Co   C    H    O 
    48    48    28     5     1
Selective dynamics
Direct
  0.0000000000000000  0.0000000000000000  0.1074400022508328   F   F   F
  0.9995686771377592  0.9950772901324854  0.2940622227802052   F   F   F
  0.9988187115354421  0.1236504951353226  0.1948555949192254   F   F   F
  0.1249999999662847  0.3749999999680114  0.1074400022508328   F   F   F
  0.1291713962710759  0.3656751052267211  0.3024460198078529   F   F   F
  0.1241413899135111  0.2515534122498551  0.1968235683219035   F   F   F
  0.2500000000017266  0.0000000000000000  0.1074400022508328   F   F   F
  0.2424750839205458  0.0047264835185530  0.2925191913194212   F   F   F
  0.2462011034213702  0.1234488716636761  0.1941649112530541   F   F   F
  0.3749999999680114  0.3749999999680114  0.1074400022508328   F   F   F
  0.3882950247331181  0.3883720573551415  0.2896524393727375   F   F   F
  0.3733609049123743  0.2518297562747094  0.2021391354043089   F   F   F
  0.5000000000034603  0.0000000000000000  0.1074400022508328   F   F   F
  0.4965886720083219  0.0065459741192271  0.2999497937780617   F   F   F
  0.5001928345718980  0.1262466635726796  0.1992789096269689   F   F   F
  0.6249999999697451  0.3749999999680114  0.1074400022508328   F   F   F
  0.6257420891400756  0.3798192059654042  0.2870626847882107   F   F   F
  0.6265061861939358  0.2479015883009623  0.2017761448589326   F   F   F
  0.7500000000051870  0.0000000000000000  0.1074400022508328   F   F   F
  0.7540971975965007  0.0038345014464980  0.2939236211209888   F   F   F
  0.7501242949035856  0.1246786934508037  0.1988652855318733   F   F   F
  0.8749999999714717  0.3749999999680114  0.1074400022508328   F   F   F
  0.8753528380572249  0.3711543450101260  0.2959266447038615   F   F   F
  0.8738510471442495  0.2505575281564987  0.1984549717139146   F   F   F
  0.0000000000000000  0.5000000000034603  0.1074400022508328   F   F   F
  0.9992826292244459  0.5016903284401195  0.2943533938519991   F   F   F
  0.9986977497721057  0.6236172108359668  0.2007686912150461   F   F   F
  0.1249999999662847  0.8749999999714717  0.1074400022508328   F   F   F
  0.1276420575938886  0.8722458684783874  0.2920084236169203   F   F   F
  0.1296683374383178  0.7488297688807677  0.2007281727679313   F   F   F
  0.2500000000017266  0.5000000000034603  0.1074400022508328   F   F   F
  0.2548372929709330  0.5000103865607386  0.3038621479142378   F   F   F
  0.2486889919427711  0.6237162930343700  0.2035656923812894   F   F   F
  0.3749999999680114  0.8749999999714717  0.1074400022508328   F   F   F
  0.3653462851683358  0.8844450435965285  0.2974231870466824   F   F   F
  0.3690126022907165  0.7498820605313199  0.1980729062358009   F   F   F
  0.5000000000034603  0.5000000000034603  0.1074400022508328   F   F   F
  0.4110459129199455  0.5145601116889083  0.3964478542738377   F   F   F
  0.5042887160990759  0.6221393800441319  0.1988941058945031   F   F   F
  0.6249999999697451  0.8749999999714717  0.1074400022508328   F   F   F
  0.6232518384733154  0.8877651960096600  0.3010610907843088   F   F   F
  0.6267605444501640  0.7508215325915870  0.1975174475556969   F   F   F
  0.7500000000051870  0.5000000000034603  0.1074400022508328   F   F   F
  0.7625599311565026  0.4985248887257967  0.2877761724045769   F   F   F
  0.7499839481457116  0.6259982424737842  0.1991232272848222   F   F   F
  0.8749999999714717  0.8749999999714717  0.1074400022508328   F   F   F
  0.8763028206674193  0.8746708085525157  0.2929843159579377   F   F   F
  0.8755355091012902  0.7495437782904588  0.1974487958157027   F   F   F
  0.1249999999662847  0.1249999999662847  0.1074400022508328   F   F   F
  0.1119739687287691  0.1233463305935487  0.2876288742257529   F   F   F
  0.1224538820816363  0.9983980903831124  0.1991128942494100   F   F   F
  0.0000000000000000  0.2500000000017266  0.1074400022508328   F   F   F
  0.9986056965120724  0.2433004615445142  0.2879279788981108   F   F   F
  0.0017362150424063  0.3761535387229813  0.2029281926461266   F   F   F
  0.3749999999680114  0.1249999999662847  0.1074400022508328   F   F   F
  0.3655133947003293  0.1189807855577314  0.2850787600793012   F   F   F
  0.3740414640129543  0.9988587003306506  0.1991951776221725   F   F   F
  0.2500000000017266  0.2500000000017266  0.1074400022508328   F   F   F
  0.2313454713759455  0.2219785859358652  0.2955672101175253   F   F   F
  0.2499011636877881  0.3761432587166027  0.1984188103835791   F   F   F
  0.6249999999697451  0.1249999999662847  0.1074400022508328   F   F   F
  0.6257379729370243  0.1213951847765031  0.2973830518589224   F   F   F
  0.6241202760194611  0.0020603713807787  0.2011814072533440   F   F   F
  0.5000000000034603  0.2500000000017266  0.1074400022508328   F   F   F
  0.4990714450826772  0.2483221730729070  0.2976672473062933   F   F   F
  0.5020700212868121  0.3751552493554868  0.1967929620615649   F   F   F
  0.8749999999714717  0.1249999999662847  0.1074400022508328   F   F   F
  0.8827543868650736  0.1254321711882298  0.2889098793309870   F   F   F
  0.8759873631332695  0.9999596598458709  0.1992846214637325   F   F   F
  0.7500000000051870  0.2500000000017266  0.1074400022508328   F   F   F
  0.7628683433287122  0.2323405026141003  0.3007232460110245   F   F   F
  0.7519782819017493  0.3731629430330088  0.1957512472997252   F   F   F
  0.1249999999662847  0.6249999999697451  0.1074400022508328   F   F   F
  0.1196583047370865  0.6326598444713980  0.2969564057878529   F   F   F
  0.1265297339687166  0.4977626768688381  0.2052571912687355   F   F   F
  0.0000000000000000  0.7500000000051870  0.1074400022508328   F   F   F
  0.9988450812802867  0.7456010749914341  0.2890871860595468   F   F   F
  0.0010733860159746  0.8723651873868548  0.1996101934309351   F   F   F
  0.3749999999680114  0.6249999999697451  0.1074400022508328   F   F   F
  0.3842637386876930  0.6217844797246030  0.2892867288503140   F   F   F
  0.3753358206440751  0.5035084564552861  0.1962300746786880   F   F   F
  0.2500000000017266  0.7500000000051870  0.1074400022508328   F   F   F
  0.2729720109865283  0.7330508152730459  0.3140508901920143   F   F   F
  0.2499858203782921  0.8758700549305232  0.1984404646486055   F   F   F
  0.6249999999697451  0.6249999999697451  0.1074400022508328   F   F   F
  0.6260123328203022  0.6320942447891866  0.2985569231160312   F   F   F
  0.6256284837211652  0.5018213010330399  0.1967896603493955   F   F   F
  0.5000000000034603  0.7500000000051870  0.1074400022508328   F   F   F
  0.4976986108767676  0.7559436170039575  0.2790346021363490   F   F   F
  0.4991446119289904  0.8790221356825185  0.1972581322738733   F   F   F
  0.8749999999714717  0.6249999999697451  0.1074400022508328   F   F   F
  0.8590358886044172  0.6476804793891304  0.3083843712404430   F   F   F
  0.8774154205971811  0.4997586441658655  0.1959166541210067   F   F   F
  0.7500000000051870  0.7500000000051870  0.1074400022508328   F   F   F
  0.7517392646786618  0.7619121137577594  0.2883457318582856   F   F   F
  0.7478965911983622  0.8783660664900381  0.2010559222654464   F   F   F
  0.4294640428395056  0.3077300965802152  0.4150762595153950   F   F   F
  0.3796886508424464  0.3912085608120321  0.4060170741797648   F   F   F
  0.5300777969073067  0.3072719834831403  0.4134185302150613   F   F   F
  0.5818779381847676  0.3950114688713597  0.4161110073705174   F   F   F
  0.7191826215171062  0.3046700513719358  0.3779085287074224   F   F   F
  0.4410435808785138  0.6448882875324458  0.3868275079419163   F   F   F
  0.3935125405312903  0.7280488140834862  0.3678685239088040   F   F   F
  0.4407068438549686  0.8146442678096761  0.3646147054282451   F   F   F
  0.5397953687341968  0.4828238446141881  0.4187062985892922   F   F   F
  0.5915988092602262  0.5655832579407019  0.4100393083073470   F   F   F
  0.5413599694446845  0.6508519960953478  0.3984622043727768   F   F   F
  0.5894832937344106  0.7371506038711644  0.3865167237204759   F   F   F
  0.5396135698687843  0.8214121448708767  0.3686427535167809   F   F   F
  0.6823998350631584  0.3927631721034288  0.3994099994744573   F   F   F
  0.7333652814724516  0.4742805682567379  0.3868106201918664   F   F   F
  0.6915443499668754  0.5624516868678242  0.3959448942961217   F   F   F
  0.7396973544030558  0.6473095567268174  0.3732152301864673   F   F   F
  0.6868847928829567  0.7282646026961643  0.3698872266226729   F   F   F
  0.2820749734509604  0.2365127450687936  0.3858014751564127   F   F   F
  0.2383086395847727  0.3186147577082394  0.3708120939943953   F   F   F
  0.2913093121992318  0.4032474220461921  0.3789953708769218   F   F   F
  0.3766225782203918  0.2232600126389528  0.4021479298267678   F   F   F
  0.4277934589365699  0.1469538905500372  0.3692756456959998   F   F   F
  0.5244516758343494  0.1415793017771065  0.3701419498653635   F   F   F
  0.5757717987316653  0.2202988664204781  0.3967539986346580   F   F   F
  0.6723819816280994  0.2240795948741905  0.3771320309528221   F   F   F
  0.2242278747199435  0.7210897288233227  0.5012944518438260   T   T   T
  0.1968807365830756  0.6469205163851868  0.4479420000826124   T   T   T
  0.1675866263739749  0.7704198050488458  0.5103341395246375   T   T   T
  0.2424256754456522  0.6888487268930277  0.5529886649413172   T   T   T
  0.2521138775940912  0.5943462049290105  0.4428673460297361   T   T   T
  0.2850327476824432  0.7592410893687855  0.4817489094815386   T   T   T
  0.1332358435645986  0.6107248154064067  0.4644357668948800   T   T   T
  0.1800060348619681  0.6858160237476199  0.3771062893214233   T   T   T
 
 