CONTCAR-CH2-CHO-FS                                  
   1.00000000000000     
    14.4588003158999996    0.0000000000000000    0.0000000000000000
     0.0000000000000000   14.4588003158999996    0.0000000000000000
     0.0000000000000000    0.0000000000000000   18.6147003174000005
   Cu   Co   C    H    O 
    48    48    28     3     1
Selective dynamics
Direct
  0.0000000000000000  0.0000000000000000  0.1074400022508328   F   F   F
  0.9999708649379571  0.9965179507337822  0.2995307031410164   F   F   F
  0.0000000000000000  0.1249999999662847  0.2045300007027890   F   F   F
  0.1249999999662847  0.3749999999680114  0.1074400022508328   F   F   F
  0.1300076462011859  0.3688378501826719  0.3065191757985843   F   F   F
  0.1249999999662847  0.2500000000017266  0.2045300007027890   F   F   F
  0.2500000000017266  0.0000000000000000  0.1074400022508328   F   F   F
  0.2497291239084802  0.0009253374970086  0.2987449178063173   F   F   F
  0.2500000000017266  0.1249999999662847  0.2045300007027890   F   F   F
  0.3749999999680114  0.3749999999680114  0.1074400022508328   F   F   F
  0.3744487932371143  0.3741162308542201  0.2871565903744440   F   F   F
  0.3749999999680114  0.2500000000017266  0.2045300007027890   F   F   F
  0.5000000000034603  0.0000000000000000  0.1074400022508328   F   F   F
  0.4996237168384425  0.9947506502106691  0.3110620206418488   F   F   F
  0.5000000000034603  0.1249999999662847  0.2045300007027890   F   F   F
  0.6249999999697451  0.3749999999680114  0.1074400022508328   F   F   F
  0.6246689379931283  0.3792713980657894  0.2943424812798412   F   F   F
  0.6249999999697451  0.2500000000017266  0.2045300007027890   F   F   F
  0.7500000000051870  0.0000000000000000  0.1074400022508328   F   F   F
  0.7556336426993724  0.0065217882679391  0.3001999083857143   F   F   F
  0.7500000000051870  0.1249999999662847  0.2045300007027890   F   F   F
  0.8749999999714717  0.3749999999680114  0.1074400022508328   F   F   F
  0.8750504284754115  0.3723173249071152  0.3050192205646738   F   F   F
  0.8749999999714717  0.2500000000017266  0.2045300007027890   F   F   F
  0.0000000000000000  0.5000000000034603  0.1074400022508328   F   F   F
  0.0031779596312163  0.4968160581477221  0.2988511068207345   F   F   F
  0.0000000000000000  0.6249999999697451  0.2045300007027890   F   F   F
  0.1249999999662847  0.8749999999714717  0.1074400022508328   F   F   F
  0.1248191909107064  0.8753780926025030  0.2979392535401928   F   F   F
  0.1249999999662847  0.7500000000051870  0.2045300007027890   F   F   F
  0.2500000000017266  0.5000000000034603  0.1074400022508328   F   F   F
  0.2429826825267014  0.5049975182766886  0.3033271789477254   F   F   F
  0.2500000000017266  0.6249999999697451  0.2045300007027890   F   F   F
  0.3749999999680114  0.8749999999714717  0.1074400022508328   F   F   F
  0.3723467223412698  0.8685743107057888  0.3064686824129836   F   F   F
  0.3749999999680114  0.7500000000051870  0.2045300007027890   F   F   F
  0.5000000000034603  0.5000000000034603  0.1074400022508328   F   F   F
  0.4771293772906802  0.5063207302153856  0.3229550689015070   F   F   F
  0.5000000000034603  0.6249999999697451  0.2045300007027890   F   F   F
  0.6249999999697451  0.8749999999714717  0.1074400022508328   F   F   F
  0.6345028450154970  0.8863573546859556  0.2981730992613976   F   F   F
  0.6249999999697451  0.7500000000051870  0.2045300007027890   F   F   F
  0.7500000000051870  0.5000000000034603  0.1074400022508328   F   F   F
  0.7571146052030784  0.5002848452894924  0.2933720795718173   F   F   F
  0.7500000000051870  0.6249999999697451  0.2045300007027890   F   F   F
  0.8749999999714717  0.8749999999714717  0.1074400022508328   F   F   F
  0.8752285509250441  0.8745429930158792  0.2994961044265096   F   F   F
  0.8749999999714717  0.7500000000051870  0.2045300007027890   F   F   F
  0.1249999999662847  0.1249999999662847  0.1074400022508328   F   F   F
  0.1183521581043365  0.1235497300349380  0.2949082307197131   F   F   F
  0.1249999999662847  0.0000000000000000  0.2045300007027890   F   F   F
  0.0000000000000000  0.2500000000017266  0.1074400022508328   F   F   F
  0.9995465976317917  0.2454139183045996  0.2949088839397973   F   F   F
  0.0000000000000000  0.3749999999680114  0.2045300007027890   F   F   F
  0.3749999999680114  0.1249999999662847  0.1074400022508328   F   F   F
  0.3723563926181797  0.1207869693753878  0.2963748065662912   F   F   F
  0.3749999999680114  0.0000000000000000  0.2045300007027890   F   F   F
  0.2500000000017266  0.2500000000017266  0.1074400022508328   F   F   F
  0.2353161135905282  0.2295874180802358  0.3049654741335956   F   F   F
  0.2500000000017266  0.3749999999680114  0.2045300007027890   F   F   F
  0.6249999999697451  0.1249999999662847  0.1074400022508328   F   F   F
  0.6250050648991774  0.1221510898765956  0.3004624290470446   F   F   F
  0.6249999999697451  0.0000000000000000  0.2045300007027890   F   F   F
  0.5000000000034603  0.2500000000017266  0.1074400022508328   F   F   F
  0.5011128620308298  0.2530277120601241  0.3033757555589673   F   F   F
  0.5000000000034603  0.3749999999680114  0.2045300007027890   F   F   F
  0.8749999999714717  0.1249999999662847  0.1074400022508328   F   F   F
  0.8843398453582267  0.1254823285204409  0.2955857021738382   F   F   F
  0.8749999999714717  0.0000000000000000  0.2045300007027890   F   F   F
  0.7500000000051870  0.2500000000017266  0.1074400022508328   F   F   F
  0.7675948810740678  0.2298718920985010  0.3080009247030731   F   F   F
  0.7500000000051870  0.3749999999680114  0.2045300007027890   F   F   F
  0.1249999999662847  0.6249999999697451  0.1074400022508328   F   F   F
  0.1189354827397366  0.6291684769877293  0.2945408298114813   F   F   F
  0.1249999999662847  0.5000000000034603  0.2045300007027890   F   F   F
  0.0000000000000000  0.7500000000051870  0.1074400022508328   F   F   F
  0.0017767147141541  0.7483422752119750  0.2956798878749893   F   F   F
  0.0000000000000000  0.8749999999714717  0.2045300007027890   F   F   F
  0.3749999999680114  0.6249999999697451  0.1074400022508328   F   F   F
  0.3647887201226112  0.6331888708748536  0.2982802043342474   F   F   F
  0.3749999999680114  0.5000000000034603  0.2045300007027890   F   F   F
  0.2500000000017266  0.7500000000051870  0.1074400022508328   F   F   F
  0.2429853512492670  0.7434468371686833  0.3005719763471433   F   F   F
  0.2500000000017266  0.8749999999714717  0.2045300007027890   F   F   F
  0.6249999999697451  0.6249999999697451  0.1074400022508328   F   F   F
  0.6185416982097465  0.6187477840514077  0.2992421618521988   F   F   F
  0.6249999999697451  0.5000000000034603  0.2045300007027890   F   F   F
  0.5000000000034603  0.7500000000051870  0.1074400022508328   F   F   F
  0.4912941365764070  0.7337498837744363  0.2989286029113813   F   F   F
  0.5000000000034603  0.8749999999714717  0.2045300007027890   F   F   F
  0.8749999999714717  0.6249999999697451  0.1074400022508328   F   F   F
  0.8817690517846941  0.6413923448280485  0.3145660715768983   F   F   F
  0.8749999999714717  0.5000000000034603  0.2045300007027890   F   F   F
  0.7500000000051870  0.7500000000051870  0.1074400022508328   F   F   F
  0.7528633591935829  0.7531978499089931  0.2955509634288731   F   F   F
  0.7500000000051870  0.8749999999714717  0.2045300007027890   F   F   F
  0.4446903223679328  0.3330134123801827  0.4050513872773323   F   F   F
  0.3960994143978240  0.4178405587169536  0.3891370172745638   F   F   F
  0.5457316731584214  0.3304792462420352  0.4067256251458957   F   F   F
  0.6022712204489551  0.4168376063857622  0.4101567258355843   F   F   F
  0.7389430773623715  0.3172526482853968  0.3853881720127106   F   F   F
  0.4843622835717838  0.7207061130080064  0.4071145486711529   F   F   F
  0.4648155217515182  0.8131955832076585  0.3788930937272639   F   F   F
  0.5346226349682652  0.8800863648902890  0.3771467259292081   F   F   F
  0.5648978156317028  0.5087701241083948  0.4036087100303973   F   F   F
  0.6184084037941986  0.5929164690959894  0.4099448072761760   F   F   F
  0.5829721722336529  0.6911620937858984  0.4091341035546989   F   F   F
  0.6516669313145442  0.7683978745162605  0.4094010223211342   F   F   F
  0.6222302330036200  0.8613921116990539  0.4025791775590264   F   F   F
  0.7040521435879512  0.4078387698073982  0.4038675972455081   F   F   F
  0.7591419754042263  0.4880120041447711  0.3972563989230409   F   F   F
  0.7206111519969340  0.5775738601974467  0.4016123506482998   F   F   F
  0.7792911160766849  0.6576469443859594  0.3835375688989231   F   F   F
  0.7456448776956606  0.7444614034493995  0.3939600841156192   F   F   F
  0.2961564192159685  0.2519368608407220  0.3911030108165505   F   F   F
  0.2527275838671983  0.3335610941267433  0.3752800268667613   F   F   F
  0.3000368926890289  0.4219503637942879  0.3749550913989381   F   F   F
  0.3930462332393674  0.2438423704806780  0.4025774544179015   F   F   F
  0.4414856119776545  0.1609645030588069  0.3778443426148996   F   F   F
  0.5385570237864812  0.1570895934433167  0.3781651104769850   F   F   F
  0.5892423258863246  0.2392417069848989  0.3993844403521791   F   F   F
  0.6871328512017243  0.2402952233509055  0.3862322830246114   F   F   F
  0.4083442097913945  0.6648913551797833  0.4421027176184253   T   T   T
  0.3177099729295136  0.6591635180861743  0.4006354901057065   T   T   T
  0.3937806225389906  0.6959675009973196  0.4953609632043765   T   T   T
  0.4314366969188228  0.5934625331501380  0.4510493676840426   T   T   T
  0.2780866719541208  0.5958362523630072  0.4135282454346410   T   T   T
  0.2631280154987223  0.7351371194419585  0.3968427067230831   T   T   T
 
