CONTCAR-CH3CH2OH     
   1.00000000000000     
    14.4588003158999996    0.0000000000000000    0.0000000000000000
     0.0000000000000000   14.4588003158999996    0.0000000000000000
     0.0000000000000000    0.0000000000000000   18.6147003174000005
   Cu   Co   C    H    O 
    48    48    28     6     1
Selective dynamics
Direct
  0.0000000000000000  0.0000000000000000  0.1074400022508328   F   F   F
  0.9998040704756406  0.9943684853028785  0.2945285464312519   F   F   F
  0.9987654316185512  0.1235546412070576  0.1947939662714973   F   F   F
  0.1249999999662847  0.3749999999680114  0.1074400022508328   F   F   F
  0.1290169000442631  0.3649234226595297  0.3024866833575928   F   F   F
  0.1242411764230411  0.2510997048590227  0.1970459423993915   F   F   F
  0.2500000000017266  0.0000000000000000  0.1074400022508328   F   F   F
  0.2415665711520560  0.0056894132377465  0.2930544267067958   F   F   F
  0.2462985442943832  0.1232839400831409  0.1944443538473806   F   F   F
  0.3749999999680114  0.3749999999680114  0.1074400022508328   F   F   F
  0.3859490386715976  0.3863589262429343  0.2889548672157360   F   F   F
  0.3732476812526997  0.2512503506469628  0.2018858980806115   F   F   F
  0.5000000000034603  0.0000000000000000  0.1074400022508328   F   F   F
  0.4978098338430712  0.0057830946981667  0.3005049272885643   F   F   F
  0.5004074116330770  0.1257381571827523  0.1991875599841464   F   F   F
  0.6249999999697451  0.3749999999680114  0.1074400022508328   F   F   F
  0.6267776915491012  0.3793278685099111  0.2870479072343244   F   F   F
  0.6267483008155139  0.2479752188883992  0.2015530510756491   F   F   F
  0.7500000000051870  0.0000000000000000  0.1074400022508328   F   F   F
  0.7542226554838649  0.0040872088698265  0.2940429868235483   F   F   F
  0.7501528948377754  0.1248110819293160  0.1990968263538235   F   F   F
  0.8749999999714717  0.3749999999680114  0.1074400022508328   F   F   F
  0.8758571726559694  0.3701789868472005  0.2958363951575294   F   F   F
  0.8738922456024127  0.2503439441590416  0.1984835073899305   F   F   F
  0.0000000000000000  0.5000000000034603  0.1074400022508328   F   F   F
  0.9988485963401601  0.5011658197540640  0.2944569054430488   F   F   F
  0.9980694243602528  0.6235076937409758  0.2007222166957305   F   F   F
  0.1249999999662847  0.8749999999714717  0.1074400022508328   F   F   F
  0.1275219718933087  0.8710470759713260  0.2928159534259223   F   F   F
  0.1296074565576433  0.7494425904902755  0.2006564624274390   F   F   F
  0.2500000000017266  0.5000000000034603  0.1074400022508328   F   F   F
  0.2527362052540525  0.5003759531215834  0.3040793940505822   F   F   F
  0.2477321596947135  0.6239479567850381  0.2017932609255624   F   F   F
  0.3749999999680114  0.8749999999714717  0.1074400022508328   F   F   F
  0.3656730337539500  0.8891414210024564  0.2974170972762451   F   F   F
  0.3726562606848631  0.7506470166126249  0.1978434052719251   F   F   F
  0.5000000000034603  0.5000000000034603  0.1074400022508328   F   F   F
  0.4109146298062853  0.5155956795318630  0.3904658289050573   F   F   F
  0.5039352853134886  0.6205982893401583  0.1989931935642701   F   F   F
  0.6249999999697451  0.8749999999714717  0.1074400022508328   F   F   F
  0.6241561747967239  0.8874480315549107  0.3008812773048319   F   F   F
  0.6252845509291944  0.7503365224465739  0.1981727258741302   F   F   F
  0.7500000000051870  0.5000000000034603  0.1074400022508328   F   F   F
  0.7650880493237793  0.4984200277660875  0.2880177410355955   F   F   F
  0.7511777621476270  0.6259859816441917  0.1985617761161578   F   F   F
  0.8749999999714717  0.8749999999714717  0.1074400022508328   F   F   F
  0.8763992495152237  0.8743158657869756  0.2932871312207581   F   F   F
  0.8756037910386425  0.7498750326914490  0.1970623600794070   F   F   F
  0.1249999999662847  0.1249999999662847  0.1074400022508328   F   F   F
  0.1112175994686879  0.1231106781131999  0.2877905126281917   F   F   F
  0.1224880333566531  0.9981312824546222  0.1992293310025204   F   F   F
  0.0000000000000000  0.2500000000017266  0.1074400022508328   F   F   F
  0.9985160703399174  0.2430552167535964  0.2880880610677252   F   F   F
  0.0018913284352067  0.3758547904425029  0.2027086636111193   F   F   F
  0.3749999999680114  0.1249999999662847  0.1074400022508328   F   F   F
  0.3666750019616671  0.1186409808790287  0.2852733215787495   F   F   F
  0.3741172465416582  0.9994340277096043  0.1983689964533824   F   F   F
  0.2500000000017266  0.2500000000017266  0.1074400022508328   F   F   F
  0.2312441080898680  0.2209554654252841  0.2964194879957631   F   F   F
  0.2495217584965204  0.3751016779403713  0.1979898315936595   F   F   F
  0.6249999999697451  0.1249999999662847  0.1074400022508328   F   F   F
  0.6255483403113047  0.1221729850887101  0.2974610837038938   F   F   F
  0.6241817262419431  0.0019900590703088  0.2012726945057679   F   F   F
  0.5000000000034603  0.2500000000017266  0.1074400022508328   F   F   F
  0.4995339137442301  0.2480013462048447  0.2963857225539428   F   F   F
  0.5019858562168764  0.3753628151738084  0.1970705048836763   F   F   F
  0.8749999999714717  0.1249999999662847  0.1074400022508328   F   F   F
  0.8829946049719055  0.1250063452783152  0.2890397662272051   F   F   F
  0.8760122290552772  0.9996872215586734  0.1994902016038296   F   F   F
  0.7500000000051870  0.2500000000017266  0.1074400022508328   F   F   F
  0.7630675090684917  0.2323724570653738  0.3013076335706231   F   F   F
  0.7522772895172452  0.3733105502910519  0.1956639950204462   F   F   F
  0.1249999999662847  0.6249999999697451  0.1074400022508328   F   F   F
  0.1208266545620873  0.6308233442339386  0.2939105027708422   F   F   F
  0.1262498410431689  0.4972079666644902  0.2052988539898450   F   F   F
  0.0000000000000000  0.7500000000051870  0.1074400022508328   F   F   F
  0.9995237461389408  0.7462454268098142  0.2883284213459163   F   F   F
  0.0009761345918236  0.8726172279103750  0.1996108819081286   F   F   F
  0.3749999999680114  0.6249999999697451  0.1074400022508328   F   F   F
  0.3776142681574157  0.6222790742955269  0.2869362375734568   F   F   F
  0.3746601488410093  0.5029512442926105  0.1964924566544681   F   F   F
  0.2500000000017266  0.7500000000051870  0.1074400022508328   F   F   F
  0.2666971614289722  0.7401589805908131  0.3058818357525013   F   F   F
  0.2506356433026014  0.8752010480234986  0.1994478035085052   F   F   F
  0.6249999999697451  0.6249999999697451  0.1074400022508328   F   F   F
  0.6305754801871046  0.6267969710399228  0.2959906784613437   F   F   F
  0.6265393425338743  0.5010817204718521  0.1970550422734760   F   F   F
  0.5000000000034603  0.7500000000051870  0.1074400022508328   F   F   F
  0.4994800624250644  0.7459709174928904  0.2848962553792447   F   F   F
  0.4996343321975303  0.8774818542397611  0.1987329595712310   F   F   F
  0.8749999999714717  0.6249999999697451  0.1074400022508328   F   F   F
  0.8611234966843355  0.6488180990812396  0.3079583844269607   F   F   F
  0.8776722946286242  0.4992795157224421  0.1955093634591307   F   F   F
  0.7500000000051870  0.7500000000051870  0.1074400022508328   F   F   F
  0.7518035801794056  0.7618164853409439  0.2874451839162475   F   F   F
  0.7477059443313934  0.8782822046672081  0.2009252697547979   F   F   F
  0.4293976604463339  0.3095166629129409  0.4156427303339001   F   F   F
  0.3791280231301073  0.3926324854873613  0.4060053119565765   F   F   F
  0.5299161329964761  0.3094896775036489  0.4133431409280846   F   F   F
  0.5813588052334779  0.3975003255693252  0.4149092566835861   F   F   F
  0.7192044805943780  0.3072397151114501  0.3775671904052587   F   F   F
  0.4403045529013312  0.6484633234504997  0.3801217958581375   F   F   F
  0.3901439812544396  0.7321756248107718  0.3638179428766364   F   F   F
  0.4395383110953190  0.8193004267199200  0.3636614279980961   F   F   F
  0.5388138430034530  0.4851594021629495  0.4154938386716296   F   F   F
  0.5902801475563706  0.5682927697467122  0.4068202239662781   F   F   F
  0.5399892628012921  0.6535702863663602  0.3945717582284303   F   F   F
  0.5877750238215356  0.7407074863140508  0.3849301928041200   F   F   F
  0.5379957341724335  0.8254202267824908  0.3694258701866886   F   F   F
  0.6822105884831515  0.3954616242705740  0.3989457234766860   F   F   F
  0.7331343649709439  0.4771865982818539  0.3867919807661266   F   F   F
  0.6908017775172866  0.5653974924094243  0.3947953118545868   F   F   F
  0.7390923261136848  0.6506439212395350  0.3727604487863374   F   F   F
  0.6855106493160648  0.7308309234024435  0.3682719013798561   F   F   F
  0.2824336298865830  0.2369246185944434  0.3863927492573467   F   F   F
  0.2382604014424885  0.3186248684573130  0.3709091615947528   F   F   F
  0.2907529193716556  0.4035308355065013  0.3788874976518528   F   F   F
  0.3769367377542494  0.2246182482242958  0.4029790616494324   F   F   F
  0.4281593097734699  0.1488318259070738  0.3695584322582732   F   F   F
  0.5247808122367346  0.1435434870519714  0.3704423194051358   F   F   F
  0.5758449422255367  0.2225808377896712  0.3967900274257588   F   F   F
  0.6723904296787353  0.2266014686385276  0.3771872650306136   F   F   F
  0.2414243670431304  0.7101579514419427  0.5129320782364104   T   T   T
  0.2015106736885244  0.6421368759429669  0.4597837810495093   T   T   T
  0.1879438511924008  0.7555086060937271  0.5359143523868610   T   T   T
  0.2739171717748405  0.6720063243652135  0.5574550960543405   T   T   T
  0.2538775966501490  0.5936473971010088  0.4394759278763445   T   T   T
  0.2948137969777278  0.7529497503721529  0.4872128383153367   T   T   T
  0.1433261109104507  0.6018137270186159  0.4814828353490697   T   T   T
  0.1231062457334531  0.7371112377797857  0.4054539469030374   T   T   T
  0.1689720003044713  0.6890152663647485  0.3934291840809490   T   T   T
 
