CONTCAR-CH              
   1.00000000000000     
    14.4588003158999996    0.0000000000000000    0.0000000000000000
     0.0000000000000000   14.4588003158999996    0.0000000000000000
     0.0000000000000000    0.0000000000000000   18.6147003174000005
   Cu   Co   C    H 
    48    48    27     1
Selective dynamics
Direct
  0.0000000000000000  0.0000000000000000  0.1074400022508328   F   F   F
  0.9987376627614140  0.9920457582254727  0.2953330424475809   F   F   F
  0.9994084110114230  0.1239994250123715  0.1941561696640051   F   F   F
  0.1249999999662847  0.3749999999680114  0.1074400022508328   F   F   F
  0.1326720731444126  0.3643899450911974  0.3017739834644289   F   F   F
  0.1256470055339562  0.2500177582986254  0.1980082286939648   F   F   F
  0.2500000000017266  0.0000000000000000  0.1074400022508328   F   F   F
  0.2446814697845028  0.0020143350881270  0.2943154357808666   F   F   F
  0.2478559084133636  0.1219857537021767  0.1957650142651133   F   F   F
  0.3749999999680114  0.3749999999680114  0.1074400022508328   F   F   F
  0.3859864760022305  0.3881396365185878  0.2840777733380762   F   F   F
  0.3732198176720587  0.2494370762856235  0.2025610841227561   F   F   F
  0.5000000000034603  0.0000000000000000  0.1074400022508328   F   F   F
  0.5004873317653065  0.9969612006802819  0.3102240445965876   F   F   F
  0.4995350879428173  0.1253784178324437  0.2021083089782252   F   F   F
  0.6249999999697451  0.3749999999680114  0.1074400022508328   F   F   F
  0.6193159689774319  0.3843134697813539  0.2867136272249979   F   F   F
  0.6260480535704502  0.2484473245012850  0.2024652141849046   F   F   F
  0.7500000000051870  0.0000000000000000  0.1074400022508328   F   F   F
  0.7576006412782661  0.0062770593504027  0.2937051387371383   F   F   F
  0.7515973439305199  0.1256413708857522  0.1988316504319201   F   F   F
  0.8749999999714717  0.3749999999680114  0.1074400022508328   F   F   F
  0.8735784492671996  0.3742242995331466  0.2988647224934837   F   F   F
  0.8743897535317373  0.2515149212581775  0.1989324342792571   F   F   F
  0.0000000000000000  0.5000000000034603  0.1074400022508328   F   F   F
  0.0039944749429495  0.4979019178258426  0.2948710365500062   F   F   F
  0.9991193423214568  0.6232761796916932  0.1990085578761907   F   F   F
  0.1249999999662847  0.8749999999714717  0.1074400022508328   F   F   F
  0.1262510237649082  0.8717370117306800  0.2943038657616697   F   F   F
  0.1255661557970384  0.7504195817735066  0.1971528721179965   F   F   F
  0.2500000000017266  0.5000000000034603  0.1074400022508328   F   F   F
  0.2527802447912748  0.5032775615159224  0.3041832796596111   F   F   F
  0.2487285436177729  0.6214929425438100  0.1991131581396175   F   F   F
  0.3749999999680114  0.8749999999714717  0.1074400022508328   F   F   F
  0.3663061237409195  0.8680260397106068  0.3052632499384629   F   F   F
  0.3735253730552159  0.7520317998799868  0.1960958469347531   F   F   F
  0.5000000000034603  0.5000000000034603  0.1074400022508328   F   F   F
  0.4217348124441997  0.5217263381257951  0.3872743987399048   F   F   F
  0.5002744684824876  0.6217373610126273  0.1991596554040171   F   F   F
  0.6249999999697451  0.8749999999714717  0.1074400022508328   F   F   F
  0.6343635761486652  0.8876048564892756  0.2943502696775511   F   F   F
  0.6253517541679585  0.7509996040142539  0.2001048544453496   F   F   F
  0.7500000000051870  0.5000000000034603  0.1074400022508328   F   F   F
  0.7556220701248364  0.4983555588559980  0.2821553667102918   F   F   F
  0.7506090783620536  0.6270100194403057  0.1976749698210298   F   F   F
  0.8749999999714717  0.8749999999714717  0.1074400022508328   F   F   F
  0.8752733295275092  0.8732943730350513  0.2939153796074407   F   F   F
  0.8760321572756240  0.7494782784277447  0.1980050983681139   F   F   F
  0.1249999999662847  0.1249999999662847  0.1074400022508328   F   F   F
  0.1085546095378334  0.1197019877816459  0.2889404261110968   F   F   F
  0.1228743573510371  0.9976677419995994  0.1998603079629717   F   F   F
  0.0000000000000000  0.2500000000017266  0.1074400022508328   F   F   F
  0.9991735314833861  0.2444274789266956  0.2882223580530763   F   F   F
  0.0017340250410030  0.3750014699074313  0.2029626217409941   F   F   F
  0.3749999999680114  0.1249999999662847  0.1074400022508328   F   F   F
  0.3682906130656747  0.1171129302714604  0.2891375590777372   F   F   F
  0.3761854325674179  0.9950651666879509  0.2046433320746104   F   F   F
  0.2500000000017266  0.2500000000017266  0.1074400022508328   F   F   F
  0.2280814912170683  0.2145281655884901  0.3003667294465373   F   F   F
  0.2499141457981295  0.3757010468578983  0.1969688168969981   F   F   F
  0.6249999999697451  0.1249999999662847  0.1074400022508328   F   F   F
  0.6286428050330102  0.1224139436485103  0.2960083790866150   F   F   F
  0.6239070111543512  0.0044431373865095  0.2000673164101983   F   F   F
  0.5000000000034603  0.2500000000017266  0.1074400022508328   F   F   F
  0.4994660983849570  0.2528696026375954  0.3001659640815433   F   F   F
  0.5016017964999762  0.3741019701537454  0.1943099291556933   F   F   F
  0.8749999999714717  0.1249999999662847  0.1074400022508328   F   F   F
  0.8874581514531883  0.1244674914495008  0.2890900195878814   F   F   F
  0.8771197325918720  0.9989723390575875  0.1995124740914775   F   F   F
  0.7500000000051870  0.2500000000017266  0.1074400022508328   F   F   F
  0.7691942885845293  0.2288774803371965  0.3032712867228184   F   F   F
  0.7506358620211842  0.3716383953642790  0.1952669588832876   F   F   F
  0.1249999999662847  0.6249999999697451  0.1074400022508328   F   F   F
  0.1228525391261783  0.6302408461139706  0.2893092932437327   F   F   F
  0.1271166256062557  0.4957459301463061  0.2040046352317972   F   F   F
  0.0000000000000000  0.7500000000051870  0.1074400022508328   F   F   F
  0.0039163742383010  0.7456259581044264  0.2899873292622530   F   F   F
  0.9999743295167178  0.8728973020672939  0.1995716606524525   F   F   F
  0.3749999999680114  0.6249999999697451  0.1074400022508328   F   F   F
  0.3723256601920752  0.6361459315955145  0.2907991756333388   F   F   F
  0.3745574676755723  0.5048154729833954  0.1948222414157996   F   F   F
  0.2500000000017266  0.7500000000051870  0.1074400022508328   F   F   F
  0.2470376653762685  0.7430051574169028  0.2890212910651684   F   F   F
  0.2506231645911114  0.8749096512382764  0.2013677777865084   F   F   F
  0.6249999999697451  0.6249999999697451  0.1074400022508328   F   F   F
  0.6235263186011437  0.6242844462261203  0.2920989239421345   F   F   F
  0.6239869009812011  0.5031606030805094  0.1947451187887950   F   F   F
  0.5000000000034603  0.7500000000051870  0.1074400022508328   F   F   F
  0.4946848151052450  0.7460917574964796  0.2851642411105999   F   F   F
  0.5001712480098348  0.8777588976781772  0.1999115335401882   F   F   F
  0.8749999999714717  0.6249999999697451  0.1074400022508328   F   F   F
  0.8787902374470278  0.6390397931955505  0.3081393318241581   F   F   F
  0.8788715598829810  0.4985633548106279  0.1969211092271621   F   F   F
  0.7500000000051870  0.7500000000051870  0.1074400022508328   F   F   F
  0.7547971590690565  0.7535665933461146  0.2906077796392594   F   F   F
  0.7507885884341690  0.8764019571115966  0.1989391762730648   F   F   F
  0.4379548821081372  0.3160611677777894  0.4050783330303886   F   F   F
  0.3853635825324631  0.3978880323557945  0.3946513422911622   F   F   F
  0.5386361480970123  0.3204865859673163  0.4048006592003546   F   F   F
  0.5913209369066408  0.4104709792985730  0.4063440496172674   F   F   F
  0.4046418041686977  0.6520013921013970  0.3895934987465850   F   F   F
  0.4813020407294815  0.7163552854860242  0.3925890328454145   F   F   F
  0.4602066671365890  0.8126233481999492  0.3722645249765861   F   F   F
  0.5337676567334597  0.8775787643190043  0.3742123153525228   F   F   F
  0.5528980925305405  0.5027920231237033  0.4077955336043786   F   F   F
  0.6096461456066251  0.5858763763419290  0.4036841032982963   F   F   F
  0.5780542244118365  0.6850544907115079  0.4027134286994212   F   F   F
  0.6476071670580197  0.7606089223078598  0.4060912480308190   F   F   F
  0.6190232272226766  0.8533103743263410  0.3980915034179233   F   F   F
  0.6927473534632611  0.4020350437915994  0.3947850645388371   F   F   F
  0.7480882783202460  0.4809141068630822  0.3847654901087765   F   F   F
  0.7108398117602874  0.5709103323923586  0.3912650502579567   F   F   F
  0.7717868705268458  0.6495080525526618  0.3748630058125286   F   F   F
  0.7402683039163094  0.7364894718008372  0.3878278672765276   F   F   F
  0.2917923407473424  0.2356411524434705  0.3852542639579681   F   F   F
  0.2448377395746775  0.3153503819383445  0.3701194096023244   F   F   F
  0.2930943137679023  0.4025562607067386  0.3728069580287752   F   F   F
  0.3881769422256269  0.2275721657835064  0.3978001335456085   F   F   F
  0.4396790324119806  0.1484789840963643  0.3700099812215214   F   F   F
  0.5365112358856052  0.1486067941585958  0.3712003106938795   F   F   F
  0.5851364912957138  0.2309748129495830  0.3946968818901055   F   F   F
  0.6823619599017476  0.2333591456299757  0.3792402721101595   F   F   F
  0.7299563632414490  0.3125782354749376  0.3774911572873805   T   T   T
  0.3438011992308106  0.6737828573397309  0.4204887318608126   T   T   T
 
