CONTCAR-CH2
   1.000
   14.4588003158999996    0.0000000000000000    0.0000000000000000
    0.0000000000000000   14.4588003158999996    0.0000000000000000
    0.0000000000000000    0.0000000000000000   18.6147003174000005
   Cu   Co   C    H 
   48   48    1    2
Selective Dynamics
Cartesian
    0.0000000000000000    0.0000000000000000    1.9999634440000342    F  F  F
    0.0040318102832866    0.0324807917063376    5.4806348583173117    F  F  F
    0.0032453383246186    1.7923609426549458    3.6837420781073744    F  F  F
    1.8073500390000172    5.4220501179999836    1.9999634440000342    F  F  F
    1.8170755553665063    5.3897211680057842    5.4792500719357644    F  F  F
    1.8302974968009589    3.6326271431426380    3.6994000858195850    F  F  F
    3.6147000789999648    0.0000000000000000    1.9999634440000342    F  F  F
    3.6202986208416368    0.0180264705829480    5.4705359353078249    F  F  F
    3.6208308155669715    1.7974498058450898    3.6893739406494870    F  F  F
    5.4220501179999836    5.4220501179999836    1.9999634440000342    F  F  F
    5.4557599683671238    5.4536547817602017    5.5250420255951775    F  F  F
    5.4134128889082689    3.6272460406431972    3.6471221750589407    F  F  F
    7.2294001580000318    0.0000000000000000    1.9999634440000342    F  F  F
    7.2267898912470017    0.0176383837702587    5.4703078333483397    F  F  F
    7.2253027187014576    1.8039873683806953    3.6997008166659158    F  F  F
    9.0367501970000497    5.4220501179999836    1.9999634440000342    F  F  F
    9.0230085642798006    5.3790277389072436    5.4775343395930678    F  F  F
    9.0111867027753902    3.6308349103637698    3.6989190918803239    F  F  F
   10.8441002369999975    0.0000000000000000    1.9999634440000342    F  F  F
   10.8371089684929700    0.0344992558462423    5.4788893730283101    F  F  F
   10.8411751180820701    1.7926378561815408    3.6831312105116276    F  F  F
   12.6514502760000145    5.4220501179999836    1.9999634440000342    F  F  F
   12.6491611305543454    5.3814417178585563    5.4734242251769158    F  F  F
   12.6516917206622939    3.6284550838815810    3.6821010922315351    F  F  F
    0.0000000000000000    7.2294001580000318    1.9999634440000342    F  F  F
    0.0077676117356025    7.2554781771566645    5.4807359850105701    F  F  F
   -0.0016745609147097    9.0237960596902091    3.6894258977085888    F  F  F
    1.8073500390000172   12.6514502760000145    1.9999634440000342    F  F  F
    1.8067658740611665   12.6187997269370804    5.4813951331287942    F  F  F
    1.8034246679756736   10.8574284732965332    3.6879897783936317    F  F  F
    3.6147000789999648    7.2294001580000318    1.9999634440000342    F  F  F
    3.6079641092780448    7.2811892855734328    5.4762468622261959    F  F  F
    3.6137887034520104    9.0245574908481760    3.6793523453314219    F  F  F
    5.4220501179999836   12.6514502760000145    1.9999634440000342    F  F  F
    5.4224785807543290   12.6159175295175796    5.4758869273536632    F  F  F
    5.4229095057929682   10.8564275862631519    3.6843037236953737    F  F  F
    7.2294001580000318    7.2294001580000318    1.9999634440000342    F  F  F
    7.2462209323421787    7.2883876294544141    5.4812629668757848    F  F  F
    7.2313009274353286    9.0224915175679961    3.6803030855986001    F  F  F
    9.0367501970000497   12.6514502760000145    1.9999634440000342    F  F  F
    9.0379834005248600   12.6212789000624213    5.4772158786280869    F  F  F
    9.0382497191048081   10.8590525693911673    3.6824067956765751    F  F  F
   10.8441002369999975    7.2294001580000318    1.9999634440000342    F  F  F
   10.8425195833508106    7.2519885400053310    5.4757965397822739    F  F  F
   10.8492595084385890    9.0221696914637768    3.6843200051796527    F  F  F
   12.6514502760000145   12.6514502760000145    1.9999634440000342    F  F  F
   12.6505261813149819   12.6253955197481744    5.4816169974230329    F  F  F
   12.6538284052323569   10.8577649919957420    3.6889635107117700    F  F  F
    1.8073500390000172    1.8073500390000172    1.9999634440000342    F  F  F
    1.8160483002890742    1.8902846987381694    5.3887202403779400    F  F  F
    1.8083664523642846   -0.0004472944821600    3.7489165746938782    F  F  F
    0.0000000000000000    3.6147000789999648    1.9999634440000342    F  F  F
   14.4607957811524734    3.5203866568688693    5.3849325917631976    F  F  F
    0.0015429663181890    5.4211887557900047    3.7453374340303718    F  F  F
    5.4220501179999836    1.8073500390000172    1.9999634440000342    F  F  F
    5.4158148743232877    1.8335532911663430    5.3841767744705544    F  F  F
    5.4237388483384485   14.4375717484035988    3.7308505261859861    F  F  F
    3.6147000789999648    3.6147000789999648    1.9999634440000342    F  F  F
    3.6323839445340145    3.5245146668732672    5.4306886492817403    F  F  F
    3.6181837954860434    5.4367235397281926    3.7430211489766170    F  F  F
    9.0367501970000497    1.8073500390000172    1.9999634440000342    F  F  F
    9.0266119835894809    1.8950196065221108    5.3879358328238194    F  F  F
    9.0348549645927623    0.0032407954942187    3.7459675809913247    F  F  F
    7.2294001580000318    3.6147000789999648    1.9999634440000342    F  F  F
    7.1364535163683680    3.5768266348607081    5.4242115143658909    F  F  F
    7.2193393534524040    5.4346752814063386    3.7457344670121935    F  F  F
   12.6514502760000145    1.8073500390000172    1.9999634440000342    F  F  F
   12.6507642875268083    1.8943184320227231    5.3811952230972331    F  F  F
   12.6515094783960826   14.4583518398673885    3.7479412598878219    F  F  F
   10.8441002369999975    3.6147000789999648    1.9999634440000342    F  F  F
   10.8361522865615658    3.5219976363655094    5.3796319590434321    F  F  F
   10.8389491000485201    5.4188971146633245    3.7429855469243374    F  F  F
    1.8073500390000172    9.0367501970000497    1.9999634440000342    F  F  F
    1.8067437180745316    9.1216572710815242    5.3908433571628702    F  F  F
    1.8060564750026613    7.2266663564215525    3.7417908073372317    F  F  F
    0.0000000000000000   10.8441002369999975    1.9999634440000342    F  F  F
   14.4563838028314695   10.7567785257801773    5.3973535010076112    F  F  F
   -0.0010935292555391   12.6519258486308477    3.7480867605842358    F  F  F
    5.4220501179999836    9.0367501970000497    1.9999634440000342    F  F  F
    5.4234920088019969    9.1212486056849613    5.3829474663622623    F  F  F
    5.4216713551033475    7.2117776425076734    3.7558501375365365    F  F  F
    3.6147000789999648   10.8441002369999975    1.9999634440000342    F  F  F
    3.6148169789285092   10.7525076203385890    5.3853415258790260    F  F  F
    3.6108559116718064   12.6465230791136118    3.7399447866197515    F  F  F
    9.0367501970000497    9.0367501970000497    1.9999634440000342    F  F  F
    9.0486476081076788    9.1225213380572256    5.3820034178685274    F  F  F
    9.0406639713014645    7.2254752277161334    3.7428182699943671    F  F  F
    7.2294001580000318   10.8441002369999975    1.9999634440000342    F  F  F
    7.2332592055371379   10.7550804390492853    5.3818198564939150    F  F  F
    7.2325807388843151   12.6479616767996070    3.7386397597233803    F  F  F
   12.6514502760000145    9.0367501970000497    1.9999634440000342    F  F  F
   12.6484069870976761    9.1168469522626019    5.3923712077437331    F  F  F
   12.6557404311161115    7.2250847313201705    3.7481071151389194    F  F  F
   10.8441002369999975   10.8441002369999975    1.9999634440000342    F  F  F
   10.8448791120854953   10.7649150783672631    5.3847302850578975    F  F  F
   10.8452479162869064   12.6533435512671257    3.7452126093623908    F  F  F
    5.4578448547801921    3.4695070825642422    6.5013728419902810    T  T  T
    5.8076466258453285    3.2101010680483606    7.5209284016854294    T  T  T
    4.5424295372239243    4.1552593992140308    6.8132946297016561    T  T  T
