CONTCAR-CH             
   1.00000000000000     
    14.4588003158999996    0.0000000000000000    0.0000000000000000
     0.0000000000000000   14.4588003158999996    0.0000000000000000
     0.0000000000000000    0.0000000000000000   18.6147003174000005
   Cu   Co   C    H 
    48    48     1     1
Selective dynamics
Direct
  0.0000000000000000  0.0000000000000000  0.1074400022508328   F   F   F
  0.0003806004083486  0.0022217481845246  0.2946176289777043   F   F   F
  0.0002003035422931  0.1239335888818971  0.1982215556570708   F   F   F
  0.1249999999662847  0.3749999999680114  0.1074400022508328   F   F   F
  0.1258484506543383  0.3719273827088045  0.2944789703760335   F   F   F
  0.1259607497605515  0.2509473235989930  0.1984264517992358   F   F   F
  0.2500000000017266  0.0000000000000000  0.1074400022508328   F   F   F
  0.2498708430329231  0.0008631186677732  0.2942526299503214   F   F   F
  0.2498594588618914  0.1243590686437699  0.1987983940322309   F   F   F
  0.3749999999680114  0.3749999999680114  0.1074400022508328   F   F   F
  0.3750323404332363  0.3752999520632656  0.2970047454597164   F   F   F
  0.3750467070789796  0.2501095734581327  0.1963067487781629   F   F   F
  0.5000000000034603  0.0000000000000000  0.1074400022508328   F   F   F
  0.5002813456899560  0.0008184415027443  0.2942634742011450   F   F   F
  0.5002346801223609  0.1243752616354215  0.1987647112685451   F   F   F
  0.6249999999697451  0.3749999999680114  0.1074400022508328   F   F   F
  0.6243424423410531  0.3723564127771155  0.2944276918726487   F   F   F
  0.6242423721421133  0.2510239094252285  0.1983185371129679   F   F   F
  0.7500000000051870  0.0000000000000000  0.1074400022508328   F   F   F
  0.7496410346063698  0.0021691785775175  0.2945968085203887   F   F   F
  0.7498462560368822  0.1239414864280164  0.1982120478482727   F   F   F
  0.8749999999714717  0.3749999999680114  0.1074400022508328   F   F   F
  0.8749991833335287  0.3725405646962656  0.2944285296908475   F   F   F
  0.8750009371680179  0.2511164381293511  0.1979041619158153   F   F   F
  0.0000000000000000  0.5000000000034603  0.1074400022508328   F   F   F
  0.0003722666325174  0.5017229855642000  0.2946639528659745   F   F   F
  0.9998410493609882  0.6240496778988458  0.1982002150544915   F   F   F
  0.1249999999662847  0.8749999999714717  0.1074400022508328   F   F   F
  0.1248145945025954  0.8726224447789619  0.2945894897769676   F   F   F
  0.1248926631980041  0.7509273788150637  0.1981843977481930   F   F   F
  0.2500000000017266  0.5000000000034603  0.1074400022508328   F   F   F
  0.2495638368342057  0.5030868657738310  0.2947054784025696   F   F   F
  0.2499110704402696  0.6239103501943788  0.1979275695206937   F   F   F
  0.3749999999680114  0.8749999999714717  0.1074400022508328   F   F   F
  0.3750289732007772  0.8725322348627174  0.2945292211481316   F   F   F
  0.3750012555818358  0.7508047072970143  0.1981671657047599   F   F   F
  0.5000000000034603  0.5000000000034603  0.1074400022508328   F   F   F
  0.5004624875225048  0.5032670140952291  0.2946756018903400   F   F   F
  0.5000921156337981  0.6239044939511444  0.1979122567200164   F   F   F
  0.6249999999697451  0.8749999999714717  0.1074400022508328   F   F   F
  0.6252340212196827  0.8725460480276510  0.2945240981816966   F   F   F
  0.6250898174586013  0.7509302917668421  0.1981169276265433   F   F   F
  0.7500000000051870  0.5000000000034603  0.1074400022508328   F   F   F
  0.7497880687090657  0.5018495681958015  0.2946148617896185   F   F   F
  0.7502514068428567  0.6240745557677840  0.1981310701672143   F   F   F
  0.8749999999714717  0.8749999999714717  0.1074400022508328   F   F   F
  0.8750148470781056  0.8733693676989205  0.2947296562659147   F   F   F
  0.8750576703637378  0.7509468018940737  0.1983265028996044   F   F   F
  0.1249999999662847  0.1249999999662847  0.1074400022508328   F   F   F
  0.1255002373232443  0.1312900009037108  0.2900811436629311   F   F   F
  0.1249577358559506  0.9999608609902140  0.2014592796272368   F   F   F
  0.0000000000000000  0.2500000000017266  0.1074400022508328   F   F   F
  0.0004441233646162  0.2441204116367004  0.2892232711545688   F   F   F
  0.0001463645571889  0.3750854686467662  0.2014107954554092   F   F   F
  0.3749999999680114  0.1249999999662847  0.1074400022508328   F   F   F
  0.3751630103059256  0.1229234563810877  0.2896802454630674   F   F   F
  0.3750489699843556  0.9978041239535997  0.2005782698625040   F   F   F
  0.2500000000017266  0.2500000000017266  0.1074400022508328   F   F   F
  0.2543298342756017  0.2473846837214637  0.2914275241992286   F   F   F
  0.2500781253012079  0.3762372936445573  0.2012079096210542   F   F   F
  0.6249999999697451  0.1249999999662847  0.1074400022508328   F   F   F
  0.6246054295771728  0.1312993515161835  0.2900152694167204   F   F   F
  0.6250815944832411  0.9999979322660266  0.2014243314582345   F   F   F
  0.5000000000034603  0.2500000000017266  0.1074400022508328   F   F   F
  0.4963551678935261  0.2479005728434984  0.2910894895670637   F   F   F
  0.4999901314050064  0.3763410285878024  0.2012049176291484   F   F   F
  0.8749999999714717  0.1249999999662847  0.1074400022508328   F   F   F
  0.8750103514252459  0.1317693438907455  0.2895612020527594   F   F   F
  0.8749972988318930  0.9999836132643622  0.2014821067507810   F   F   F
  0.7500000000051870  0.2500000000017266  0.1074400022508328   F   F   F
  0.7495119261103298  0.2441893307837759  0.2892472003252138   F   F   F
  0.7498638984399548  0.3751383383094549  0.2014001164113708   F   F   F
  0.1249999999662847  0.6249999999697451  0.1074400022508328   F   F   F
  0.1245807041263873  0.6307305070207576  0.2896424742135437   F   F   F
  0.1248986256009488  0.4998622812234856  0.2014176363314206   F   F   F
  0.0000000000000000  0.7500000000051870  0.1074400022508328   F   F   F
  0.9998409649338598  0.7442007690646761  0.2898580047434294   F   F   F
  0.9999125450408357  0.8750484639217007  0.2014464145692827   F   F   F
  0.3749999999680114  0.6249999999697451  0.1074400022508328   F   F   F
  0.3749580750820343  0.6304375380348262  0.2893817679862352   F   F   F
  0.3749912440391157  0.4987922878661948  0.2017878290975190   F   F   F
  0.2500000000017266  0.7500000000051870  0.1074400022508328   F   F   F
  0.2499802566093408  0.7434242094995369  0.2896597888053236   F   F   F
  0.2498107799591907  0.8747198843991271  0.2011001461146051   F   F   F
  0.6249999999697451  0.6249999999697451  0.1074400022508328   F   F   F
  0.6255911762035069  0.6308083593676272  0.2895328985848593   F   F   F
  0.6251966937294426  0.4999112302402722  0.2013750455704724   F   F   F
  0.5000000000034603  0.7500000000051870  0.1074400022508328   F   F   F
  0.5000412763682434  0.7433352483029267  0.2896419406711530   F   F   F
  0.5001830950372721  0.8747220026210769  0.2010891314143350   F   F   F
  0.8749999999714717  0.6249999999697451  0.1074400022508328   F   F   F
  0.8750410073884964  0.6302759856747713  0.2897931988371241   F   F   F
  0.8750314182494492  0.4998523512011772  0.2014710972844611   F   F   F
  0.7500000000051870  0.7500000000051870  0.1074400022508328   F   F   F
  0.7502269145366682  0.7442823035253099  0.2897454008429534   F   F   F
  0.7501353593009128  0.8750365680632228  0.2013988050898305   F   F   F
  0.3755237737128070  0.2432554687559332  0.3356201523062268   T   T   T
  0.3766491893748594  0.2380672943346980  0.3945909841620275   T   T   T
 
