CONTCAR-CH2-CHO-FS
   1.00000000000000     
    14.4588003158999996    0.0000000000000000    0.0000000000000000
     0.0000000000000000   14.4588003158999996    0.0000000000000000
     0.0000000000000000    0.0000000000000000   18.6147003174000005
   Cu   Co   C    O    H 
    48    48     2     1     3
Selective dynamics
Direct
  0.0000000000000000  0.0000000000000000  0.1074400022508328   F   F   F
  0.0000863662530861  0.0014013622522739  0.2995524674237728   F   F   F
  0.0000000000000000  0.1249999999662847  0.2045300007027890   F   F   F
  0.1249999999662847  0.3749999999680114  0.1074400022508328   F   F   F
  0.1198368139444099  0.3732090773312322  0.3029409507791740   F   F   F
  0.1249999999662847  0.2500000000017266  0.2045300007027890   F   F   F
  0.2500000000017266  0.0000000000000000  0.1074400022508328   F   F   F
  0.2496825213930052  0.0013162427633588  0.2991686093280279   F   F   F
  0.2500000000017266  0.1249999999662847  0.2045300007027890   F   F   F
  0.3749999999680114  0.3749999999680114  0.1074400022508328   F   F   F
  0.3772832474113343  0.3726361812915542  0.3021774848402856   F   F   F
  0.3749999999680114  0.2500000000017266  0.2045300007027890   F   F   F
  0.5000000000034603  0.0000000000000000  0.1074400022508328   F   F   F
  0.5006348334086681  0.0003719041991630  0.2996267509634691   F   F   F
  0.5000000000034603  0.1249999999662847  0.2045300007027890   F   F   F
  0.6249999999697451  0.3749999999680114  0.1074400022508328   F   F   F
  0.6246671512094437  0.3737638452520642  0.2992241311844808   F   F   F
  0.6249999999697451  0.2500000000017266  0.2045300007027890   F   F   F
  0.7500000000051870  0.0000000000000000  0.1074400022508328   F   F   F
  0.7499759558135324  0.0011180756845093  0.2993105655050954   F   F   F
  0.7500000000051870  0.1249999999662847  0.2045300007027890   F   F   F
  0.8749999999714717  0.3749999999680114  0.1074400022508328   F   F   F
  0.8748974267821268  0.3734511063959332  0.2991215370131428   F   F   F
  0.8749999999714717  0.2500000000017266  0.2045300007027890   F   F   F
  0.0000000000000000  0.5000000000034603  0.1074400022508328   F   F   F
  0.9975207909486699  0.5026668849854445  0.2984573480358321   F   F   F
  0.0000000000000000  0.6249999999697451  0.2045300007027890   F   F   F
  0.1249999999662847  0.8749999999714717  0.1074400022508328   F   F   F
  0.1247857979711569  0.8736777461202436  0.2993911672833249   F   F   F
  0.1249999999662847  0.7500000000051870  0.2045300007027890   F   F   F
  0.2500000000017266  0.5000000000034603  0.1074400022508328   F   F   F
  0.2513587905876520  0.5085771173620088  0.3003392038006822   F   F   F
  0.2500000000017266  0.6249999999697451  0.2045300007027890   F   F   F
  0.3749999999680114  0.8749999999714717  0.1074400022508328   F   F   F
  0.3749846584364320  0.8732213279165748  0.2994404318371693   F   F   F
  0.3749999999680114  0.7500000000051870  0.2045300007027890   F   F   F
  0.5000000000034603  0.5000000000034603  0.1074400022508328   F   F   F
  0.4995951101583316  0.5013263249200079  0.2989969180773500   F   F   F
  0.5000000000034603  0.6249999999697451  0.2045300007027890   F   F   F
  0.6249999999697451  0.8749999999714717  0.1074400022508328   F   F   F
  0.6250743577857421  0.8735102124112473  0.2992937433075014   F   F   F
  0.6249999999697451  0.7500000000051870  0.2045300007027890   F   F   F
  0.7500000000051870  0.5000000000034603  0.1074400022508328   F   F   F
  0.7496098044716533  0.5013563011396442  0.2994016268274251   F   F   F
  0.7500000000051870  0.6249999999697451  0.2045300007027890   F   F   F
  0.8749999999714717  0.8749999999714717  0.1074400022508328   F   F   F
  0.8751016394801496  0.8740224866007296  0.2994476999191704   F   F   F
  0.8749999999714717  0.7500000000051870  0.2045300007027890   F   F   F
  0.1249999999662847  0.1249999999662847  0.1074400022508328   F   F   F
  0.1251176670912102  0.1297157220972451  0.2958329333492955   F   F   F
  0.1249999999662847  0.0000000000000000  0.2045300007027890   F   F   F
  0.0000000000000000  0.2500000000017266  0.1074400022508328   F   F   F
  0.9989606328813494  0.2439532432645564  0.2954230629802055   F   F   F
  0.0000000000000000  0.3749999999680114  0.2045300007027890   F   F   F
  0.3749999999680114  0.1249999999662847  0.1074400022508328   F   F   F
  0.3772759574384068  0.1257609285372396  0.2944606354589112   F   F   F
  0.3749999999680114  0.0000000000000000  0.2045300007027890   F   F   F
  0.2500000000017266  0.2500000000017266  0.1074400022508328   F   F   F
  0.2547762297036371  0.2416719090794999  0.2980983130785830   F   F   F
  0.2500000000017266  0.3749999999680114  0.2045300007027890   F   F   F
  0.6249999999697451  0.1249999999662847  0.1074400022508328   F   F   F
  0.6250344726294301  0.1288162010265452  0.2956890217628683   F   F   F
  0.6249999999697451  0.0000000000000000  0.2045300007027890   F   F   F
  0.5000000000034603  0.2500000000017266  0.1074400022508328   F   F   F
  0.5028731258891810  0.2434296514099046  0.2955066761618497   F   F   F
  0.5000000000034603  0.3749999999680114  0.2045300007027890   F   F   F
  0.8749999999714717  0.1249999999662847  0.1074400022508328   F   F   F
  0.8746386065266591  0.1288380682566768  0.2957469314474466   F   F   F
  0.8749999999714717  0.0000000000000000  0.2045300007027890   F   F   F
  0.7500000000051870  0.2500000000017266  0.1074400022508328   F   F   F
  0.7500637668339678  0.2456399671372722  0.2959430487787884   F   F   F
  0.7500000000051870  0.3749999999680114  0.2045300007027890   F   F   F
  0.1249999999662847  0.6249999999697451  0.1074400022508328   F   F   F
  0.1222260913186659  0.6325590731540771  0.2957766380910343   F   F   F
  0.1249999999662847  0.5000000000034603  0.2045300007027890   F   F   F
  0.0000000000000000  0.7500000000051870  0.1074400022508328   F   F   F
  0.9992686840781104  0.7464438084482694  0.2955250559894580   F   F   F
  0.0000000000000000  0.8749999999714717  0.2045300007027890   F   F   F
  0.3749999999680114  0.6249999999697451  0.1074400022508328   F   F   F
  0.3771639750163800  0.6313295400773598  0.2953508678916350   F   F   F
  0.3749999999680114  0.5000000000034603  0.2045300007027890   F   F   F
  0.2500000000017266  0.7500000000051870  0.1074400022508328   F   F   F
  0.2503144657959524  0.7452843993920766  0.2956447978011241   F   F   F
  0.2500000000017266  0.8749999999714717  0.2045300007027890   F   F   F
  0.6249999999697451  0.6249999999697451  0.1074400022508328   F   F   F
  0.6250358024272060  0.6292387696348243  0.2959435309990113   F   F   F
  0.6249999999697451  0.5000000000034603  0.2045300007027890   F   F   F
  0.5000000000034603  0.7500000000051870  0.1074400022508328   F   F   F
  0.5004719117719816  0.7463274782521268  0.2958230967019304   F   F   F
  0.5000000000034603  0.8749999999714717  0.2045300007027890   F   F   F
  0.8749999999714717  0.6249999999697451  0.1074400022508328   F   F   F
  0.8744888555470425  0.6297546703498540  0.2959129186323182   F   F   F
  0.8749999999714717  0.5000000000034603  0.2045300007027890   F   F   F
  0.7500000000051870  0.7500000000051870  0.1074400022508328   F   F   F
  0.7499721267450568  0.7462494338109167  0.2956423593608832   F   F   F
  0.7500000000051870  0.8749999999714717  0.2045300007027890   F   F   F
  0.2739188784045226  0.3987858240758513  0.4084208194984029   T   T   T
  0.3041546136887945  0.3079192345024921  0.3926476984121692   T   T   T
  0.1951894017848801  0.4335240595650021  0.3866841719404874   T   T   T
  0.3175776016506262  0.4442166340150777  0.4417514492930721   T   T   T
  0.3630575737486126  0.2824406954893561  0.4237811607009547   T   T   T
  0.2438563484166281  0.2560523228214038  0.3916852707714593   T   T   T
 
