CONTCAR-CH2-CHO-IS                                 
   1.00000000000000     
    14.4588003158999996    0.0000000000000000    0.0000000000000000
     0.0000000000000000   14.4588003158999996    0.0000000000000000
     0.0000000000000000    0.0000000000000000   18.6147003174000005
   Cu   Co   C    O    H 
    48    48     2     1     3
Selective dynamics
Direct
  0.0000000000000000  0.0000000000000000  0.1074400022508328   F   F   F
  0.0002239549373613  0.0022580978146109  0.2942449827188582   F   F   F
  0.0003945592051267  0.1237383596016670  0.1976242563347341   F   F   F
  0.1249999999662847  0.3749999999680114  0.1074400022508328   F   F   F
  0.1263928404698333  0.3704860673156247  0.2977499818451861   F   F   F
  0.1266754697966022  0.2521990832214485  0.1993431502032550   F   F   F
  0.2500000000017266  0.0000000000000000  0.1074400022508328   F   F   F
  0.2504608929583299  0.0012539296937888  0.2937289886342569   F   F   F
  0.2504440327876338  0.1242573295412583  0.1981523563293521   F   F   F
  0.3749999999680114  0.3749999999680114  0.1074400022508328   F   F   F
  0.3766339179188591  0.3774862526056424  0.2969741727480155   F   F   F
  0.3744317975404456  0.2509943434249138  0.1957629758798944   F   F   F
  0.5000000000034603  0.0000000000000000  0.1074400022508328   F   F   F
  0.4997335362008712  0.0012761109373756  0.2938740270325226   F   F   F
  0.4997131970634996  0.1248404822714306  0.1988000457929076   F   F   F
  0.6249999999697451  0.3749999999680114  0.1074400022508328   F   F   F
  0.6240535154583782  0.3720169493842249  0.2941629927918683   F   F   F
  0.6231137177858059  0.2510918598930303  0.1986564457774591   F   F   F
  0.7500000000051870  0.0000000000000000  0.1074400022508328   F   F   F
  0.7494779604831834  0.0023665781916549  0.2943143829712440   F   F   F
  0.7495503422110090  0.1239158669756293  0.1977127972579922   F   F   F
  0.8749999999714717  0.3749999999680114  0.1074400022508328   F   F   F
  0.8733098144143554  0.3707718404874427  0.2935259546553510   F   F   F
  0.8748282780170200  0.2507267010534306  0.1973862986024031   F   F   F
  0.0000000000000000  0.5000000000034603  0.1074400022508328   F   F   F
  0.9946683829137370  0.5006736826427343  0.2972441390046754   F   F   F
  0.0011284480244811  0.6235618697773120  0.1996301937073355   F   F   F
  0.1249999999662847  0.8749999999714717  0.1074400022508328   F   F   F
  0.1249879071489630  0.8725207611483228  0.2942684809533986   F   F   F
  0.1243614692826114  0.7504488851391216  0.1982588942935024   F   F   F
  0.2500000000017266  0.5000000000034603  0.1074400022508328   F   F   F
  0.2505719453046922  0.5062895150309430  0.2954536292684367   F   F   F
  0.2500833524863708  0.6244199534081289  0.1973354415694359   F   F   F
  0.3749999999680114  0.8749999999714717  0.1074400022508328   F   F   F
  0.3749173246804247  0.8724083232569200  0.2941268017492646   F   F   F
  0.3750928772014177  0.7510712510643813  0.1975731271367493   F   F   F
  0.5000000000034603  0.5000000000034603  0.1074400022508328   F   F   F
  0.5009880046060715  0.5039245362997420  0.2943412854621812   F   F   F
  0.5001791035637950  0.6238776783936402  0.1974645525121588   F   F   F
  0.6249999999697451  0.8749999999714717  0.1074400022508328   F   F   F
  0.6250821622086349  0.8731176186485357  0.2941964510346935   F   F   F
  0.6249973079187612  0.7510719053719299  0.1976723283615485   F   F   F
  0.7500000000051870  0.5000000000034603  0.1074400022508328   F   F   F
  0.7500521214133258  0.5014974484781050  0.2939260590107224   F   F   F
  0.7502659415104773  0.6238455252128148  0.1975314928535923   F   F   F
  0.8749999999714717  0.8749999999714717  0.1074400022508328   F   F   F
  0.8747545308627735  0.8730720642061485  0.2943325630980453   F   F   F
  0.8753206389646664  0.7511916464113781  0.1978110993561089   F   F   F
  0.1249999999662847  0.1249999999662847  0.1074400022508328   F   F   F
  0.1257239154011245  0.1310006409300968  0.2893935591531971   F   F   F
  0.1250143459933213  0.0000381849371607  0.2012874497944495   F   F   F
  0.0000000000000000  0.2500000000017266  0.1074400022508328   F   F   F
  0.9990071678106673  0.2426195982643762  0.2887832472474301   F   F   F
  0.0002954197644698  0.3748729538542150  0.2011032869364300   F   F   F
  0.3749999999680114  0.1249999999662847  0.1074400022508328   F   F   F
  0.3746443288932326  0.1270092266057574  0.2892908626916153   F   F   F
  0.3752796500098228  0.9985103095727936  0.2003914207469037   F   F   F
  0.2500000000017266  0.2500000000017266  0.1074400022508328   F   F   F
  0.2520567317677092  0.2437727148302216  0.2916006901493375   F   F   F
  0.2496480534924359  0.3767997679295974  0.2016439964518639   F   F   F
  0.6249999999697451  0.1249999999662847  0.1074400022508328   F   F   F
  0.6240874529974434  0.1310539941899620  0.2895077924820555   F   F   F
  0.6247904263469763  0.0002702631860387  0.2011900248229708   F   F   F
  0.5000000000034603  0.2500000000017266  0.1074400022508328   F   F   F
  0.4933777848293275  0.2477630034836125  0.2913486632133484   F   F   F
  0.4991955333866258  0.3759134608038934  0.2012604773056523   F   F   F
  0.8749999999714717  0.1249999999662847  0.1074400022508328   F   F   F
  0.8745636533269519  0.1309332680480892  0.2887743393330879   F   F   F
  0.8749852260741946  0.9999544487548064  0.2013003127317816   F   F   F
  0.7500000000051870  0.2500000000017266  0.1074400022508328   F   F   F
  0.7492409922009600  0.2432994057891591  0.2888986768896231   F   F   F
  0.7492656227855647  0.3747447877103625  0.2007420419276329   F   F   F
  0.1249999999662847  0.6249999999697451  0.1074400022508328   F   F   F
  0.1282097808739522  0.6280183343162875  0.2924060044949783   F   F   F
  0.1250624306762376  0.4994493809523490  0.1985269017544766   F   F   F
  0.0000000000000000  0.7500000000051870  0.1074400022508328   F   F   F
  0.9993643351221309  0.7437569907277606  0.2907317271728900   F   F   F
  0.0000514830957314  0.8745727643790531  0.2016061523673969   F   F   F
  0.3749999999680114  0.6249999999697451  0.1074400022508328   F   F   F
  0.3764744983520814  0.6319164427416837  0.2891125679164404   F   F   F
  0.3747360892821732  0.4986780942885503  0.2017709340503231   F   F   F
  0.2500000000017266  0.7500000000051870  0.1074400022508328   F   F   F
  0.2504042265092892  0.7442500926504820  0.2891217573785951   F   F   F
  0.2495073037141395  0.8741870931479099  0.2009925311191907   F   F   F
  0.6249999999697451  0.6249999999697451  0.1074400022508328   F   F   F
  0.6258750270126043  0.6308938668440973  0.2889260399395823   F   F   F
  0.6252561593992070  0.4997070976526388  0.2009294003432345   F   F   F
  0.5000000000034603  0.7500000000051870  0.1074400022508328   F   F   F
  0.5004851818371847  0.7440209368452813  0.2888972187815284   F   F   F
  0.5002162396629330  0.8749845429367298  0.2007305838961884   F   F   F
  0.8749999999714717  0.6249999999697451  0.1074400022508328   F   F   F
  0.8729623987293280  0.6322974385621123  0.2894171579295488   F   F   F
  0.8766202465900150  0.4998015481866247  0.2018642469160810   F   F   F
  0.7500000000051870  0.7500000000051870  0.1074400022508328   F   F   F
  0.7494323435814536  0.7447085193130931  0.2889800074952973   F   F   F
  0.7498246969549172  0.8754242178980221  0.2010520423424325   F   F   F
  0.3775995947137005  0.2399839640518735  0.3492958991975428   T   T   T
  0.1381701698944866  0.5513773384719300  0.3709684186908149   T   T   T
  0.0892546508715881  0.4761867677027780  0.3804780498057383   T   T   T
  0.4024049948747930  0.2226950215936441  0.4040455828377887   T   T   T
  0.3132903460707936  0.2862048094314531  0.3662917267537296   T   T   T
  0.1709805127765591  0.5779200589868125  0.4201617907037427   T   T   T
 
