CONTCAR-CH3CH2O              
   1.00000000000000     
    14.4588003158999996    0.0000000000000000    0.0000000000000000
     0.0000000000000000   14.4588003158999996    0.0000000000000000
     0.0000000000000000    0.0000000000000000   18.6147003174000005
   Cu   Co   C    O    H 
    48    48     2     1     5
Selective dynamics
Direct
  0.0000000000000000  0.0000000000000000  0.1074400022508328   F   F   F
  0.9996445369294159  0.0020105740818180  0.2945292068841929   T   T   T
  0.0000111872844307  0.1238922553376362  0.1976315802160788   T   T   T
  0.1249999999662847  0.3749999999680114  0.1074400022508328   F   F   F
  0.1201684918196084  0.3741048888583174  0.2991063686350042   T   T   T
  0.1255785814169253  0.2523931840150819  0.1995474937486867   T   T   T
  0.2500000000017266  0.0000000000000000  0.1074400022508328   F   F   F
  0.2502252708409408  0.0024297417381548  0.2945686062111906   T   T   T
  0.2498419470311188  0.1234368887500626  0.1973455406052086   T   T   T
  0.3749999999680114  0.3749999999680114  0.1074400022508328   F   F   F
  0.3793940501549748  0.3707081554976109  0.2932238282828988   T   T   T
  0.3750636351434290  0.2507355523584381  0.1978477142385693   T   T   T
  0.5000000000034603  0.0000000000000000  0.1074400022508328   F   F   F
  0.5003627250187790  0.0020036275588697  0.2945097421904192   T   T   T
  0.5002333471349908  0.1237120376781969  0.1976149344803953   T   T   T
  0.6249999999697451  0.3749999999680114  0.1074400022508328   F   F   F
  0.6248803400208647  0.3727994493204760  0.2944774498884732   T   T   T
  0.6251171747746660  0.2509424537203052  0.1980225460795688   T   T   T
  0.7500000000051870  0.0000000000000000  0.1074400022508328   F   F   F
  0.7501575714511031  0.0021102628748249  0.2946140552696521   T   T   T
  0.7500938336877041  0.1240055653630018  0.1979620880574042   T   T   T
  0.8749999999714717  0.3749999999680114  0.1074400022508328   F   F   F
  0.8751679587693294  0.3727835161931497  0.2941922205235688   T   T   T
  0.8750293920678999  0.2512176846237982  0.1979201740376718   T   T   T
  0.0000000000000000  0.5000000000034603  0.1074400022508328   F   F   F
  0.9969077022039337  0.5042948944807564  0.2934538353940342   T   T   T
  0.9997606610265614  0.6243377015941883  0.1976907291853808   T   T   T
  0.1249999999662847  0.8749999999714717  0.1074400022508328   F   F   F
  0.1249707474203774  0.8727129502989074  0.2945410581624646   T   T   T
  0.1252897120864933  0.7512149578757437  0.1976945065407073   T   T   T
  0.2500000000017266  0.5000000000034603  0.1074400022508328   F   F   F
  0.2545783287714481  0.5037350615543885  0.2997801322835866   T   T   T
  0.2496582086481628  0.6225854244599675  0.1993868196110498   T   T   T
  0.3749999999680114  0.8749999999714717  0.1074400022508328   F   F   F
  0.3752841296555144  0.8727999222482189  0.2944333284847085   T   T   T
  0.3749533698166192  0.7511499835917046  0.1977135906096610   T   T   T
  0.5000000000034603  0.5000000000034603  0.1074400022508328   F   F   F
  0.4999419383639191  0.5023229914345401  0.2942812361974319   T   T   T
  0.5000860739449926  0.6238469994658131  0.1978061765719952   T   T   T
  0.6249999999697451  0.8749999999714717  0.1074400022508328   F   F   F
  0.6249934581079852  0.8729657045581943  0.2945902590511957   T   T   T
  0.6250590904568660  0.7510173890771139  0.1979471202380367   T   T   T
  0.7500000000051870  0.5000000000034603  0.1074400022508328   F   F   F
  0.7500620566655289  0.5021354073884061  0.2944431882297832   T   T   T
  0.7499053507319332  0.6240991012708832  0.1980881759633470   T   T   T
  0.8749999999714717  0.8749999999714717  0.1074400022508328   F   F   F
  0.8748869504418503  0.8729129377830163  0.2945456290804818   T   T   T
  0.8747786457840039  0.7512573805261152  0.1977811325423044   T   T   T
  0.1249999999662847  0.1249999999662847  0.1074400022508328   F   F   F
  0.1243384600904943  0.1296482541941779  0.2889564384892007   T   T   T
  0.1249271427050606 -0.0001126645210659  0.2014603270151403   T   T   T
  0.0000000000000000  0.2500000000017266  0.1074400022508328   F   F   F
  0.9988914653678934  0.2425932570411910  0.2897476499941857   T   T   T
  0.0015254659526801  0.3751047834692239  0.2020383112320807   T   T   T
  0.3749999999680114  0.1249999999662847  0.1074400022508328   F   F   F
  0.3757478596795377  0.1301115702500445  0.2890634125194013   T   T   T
  0.3751352229345302  0.9997650605617349  0.2013558806421306   T   T   T
  0.2500000000017266  0.2500000000017266  0.1074400022508328   F   F   F
  0.2515982933050729  0.2391712707389123  0.2899149395385546   T   T   T
  0.2499120920739905  0.3756123696101541  0.2013008528763368   T   T   T
  0.6249999999697451  0.1249999999662847  0.1074400022508328   F   F   F
  0.6254156113016632  0.1301090095728550  0.2892650921278532   T   T   T
  0.6252398963499013  0.9997702880360060  0.2012448847995722   T   T   T
  0.5000000000034603  0.2500000000017266  0.1074400022508328   F   F   F
  0.5011329214666218  0.2423092089995121  0.2897552254906022   T   T   T
  0.5007951753352263  0.3753044189850001  0.2007006129753582   T   T   T
  0.8749999999714717  0.1249999999662847  0.1074400022508328   F   F   F
  0.8750893661039122  0.1306232601718117  0.2893404295172943   T   T   T
  0.8749558550834585  0.9998040626697847  0.2013164593305121   T   T   T
  0.7500000000051870  0.2500000000017266  0.1074400022508328   F   F   F
  0.7500739650298270  0.2439768300536015  0.2895766608953833   T   T   T
  0.7499744041298947  0.3750315466873571  0.2012759339559769   T   T   T
  0.1249999999662847  0.6249999999697451  0.1074400022508328   F   F   F
  0.1229246289745798  0.6337166728004949  0.2899917675184850   T   T   T
  0.1249040539552001  0.5001439762052677  0.2009434090136981   T   T   T
  0.0000000000000000  0.7500000000051870  0.1074400022508328   F   F   F
  0.9995987319613723  0.7444822383905090  0.2891590007178790   T   T   T
  1.0000219154325547  0.8751388287703137  0.2013488891642871   T   T   T
  0.3749999999680114  0.6249999999697451  0.1074400022508328   F   F   F
  0.3765418237817995  0.6323629117503877  0.2895749474976660   T   T   T
  0.3736296567694687  0.4996929685063479  0.2021176888874071   T   T   T
  0.2500000000017266  0.7500000000051870  0.1074400022508328   F   F   F
  0.2504429355293872  0.7444658008422768  0.2892555241474651   T   T   T
  0.2500352792400086  0.8750943728431112  0.2014608979968094   T   T   T
  0.6249999999697451  0.6249999999697451  0.1074400022508328   F   F   F
  0.6249515859208382  0.6310650164242574  0.2896022507320968   T   T   T
  0.6250810758348614  0.4999590096649422  0.2012928100857209   T   T   T
  0.5000000000034603  0.7500000000051870  0.1074400022508328   F   F   F
  0.5003519059031831  0.7443510206981326  0.2892969212218567   T   T   T
  0.5001329958529719  0.8751892281465116  0.2012438485725772   T   T   T
  0.8749999999714717  0.6249999999697451  0.1074400022508328   F   F   F
  0.8744222255499012  0.6320870449155143  0.2896773805133339   T   T   T
  0.8742768885844870  0.4997629690794843  0.2008317502805268   T   T   T
  0.7500000000051870  0.7500000000051870  0.1074400022508328   F   F   F
  0.7497464211946907  0.7447229762407909  0.2894440342210600   T   T   T
  0.7499652054560947  0.8751161222083413  0.2013384648399084   T   T   T
  0.2427387767103248  0.3821938883318319  0.4256764124948910   T   T   T
  0.1850316313124731  0.3080685644744151  0.4619871232715843   T   T   T
  0.1891200802134505  0.4358462667843734  0.3769623631923592   T   T   T
  0.3017442929769504  0.3477594271112852  0.3960906774126670   T   T   T
  0.1288621789778500  0.3393408367822138  0.4935479755824899   T   T   T
  0.1534798857422185  0.2628041364621434  0.4208091777789315   T   T   T
  0.2752972898315172  0.4289601419039559  0.4651769639243640   T   T   T
  0.2278667995795239  0.2647200694724430  0.4973641580383689   T   T   T
 
