CONTCAR-CH3CH2OH             
   1.00000000000000     
    14.4588003158999996    0.0000000000000000    0.0000000000000000
     0.0000000000000000   14.4588003158999996    0.0000000000000000
     0.0000000000000000    0.0000000000000000   18.6147003174000005
   Cu   Co   C    O    H 
    48    48     2     1     6
Selective dynamics
Direct
  0.0000000000000000  0.0000000000000000  0.1074400022508328   F   F   F
  0.9999381182821985  0.0023742986373455  0.2946719653865397   T   T   T
  0.0000979513792115  0.1238885875174951  0.1979738178627439   T   T   T
  0.1249999999662847  0.3749999999680114  0.1074400022508328   F   F   F
  0.1225245653595897  0.3724625083015414  0.2964185371441442   T   T   T
  0.1253898671183659  0.2516377409131884  0.1987609327524699   T   T   T
  0.2500000000017266  0.0000000000000000  0.1074400022508328   F   F   F
  0.2501075100027329  0.0023006829206529  0.2947236460438614   T   T   T
  0.2498772632923904  0.1234379706380968  0.1977742437426712   T   T   T
  0.3749999999680114  0.3749999999680114  0.1074400022508328   F   F   F
  0.3768308031075838  0.3710596387913946  0.2934924094170666   T   T   T
  0.3751901979231265  0.2506686978066927  0.1976414611173727   T   T   T
  0.5000000000034603  0.0000000000000000  0.1074400022508328   F   F   F
  0.5001945814179271  0.0019586081712243  0.2946425451340455   T   T   T
  0.5002334377216135  0.1237642920360153  0.1979164997083483   T   T   T
  0.6249999999697451  0.3749999999680114  0.1074400022508328   F   F   F
  0.6248008177767698  0.3727316146851861  0.2946343892059427   T   T   T
  0.6249988855470630  0.2509508183027770  0.1981692933769522   T   T   T
  0.7500000000051870  0.0000000000000000  0.1074400022508328   F   F   F
  0.7501118331687677  0.0022591493352869  0.2946778832865260   T   T   T
  0.7500220489443579  0.1240448603847355  0.1981387948679977   T   T   T
  0.8749999999714717  0.3749999999680114  0.1074400022508328   F   F   F
  0.8755068145206222  0.3729331996702041  0.2945646555707721   T   T   T
  0.8751597898165613  0.2511923575474281  0.1980359721948818   T   T   T
  0.0000000000000000  0.5000000000034603  0.1074400022508328   F   F   F
  0.9988058262464300  0.5039205580071814  0.2942011188950145   T   T   T
  0.9996075125573753  0.6242429338707656  0.1976288721605154   T   T   T
  0.1249999999662847  0.8749999999714717  0.1074400022508328   F   F   F
  0.1250585422301151  0.8728007544648041  0.2946767604855595   T   T   T
  0.1251883410944613  0.7515038974023637  0.1978248493997164   T   T   T
  0.2500000000017266  0.5000000000034603  0.1074400022508328   F   F   F
  0.2532322121546353  0.5046685869996047  0.2970273473119386   T   T   T
  0.2500767709774224  0.6234722871198496  0.1985287595858380   T   T   T
  0.3749999999680114  0.8749999999714717  0.1074400022508328   F   F   F
  0.3750444293902775  0.8726324711218290  0.2945945401336661   T   T   T
  0.3749335297772477  0.7511854045858056  0.1979919990856815   T   T   T
  0.5000000000034603  0.5000000000034603  0.1074400022508328   F   F   F
  0.4997423628660848  0.5019170435723770  0.2947215054452529   T   T   T
  0.5000576716298486  0.6238244717516038  0.1979553517405020   T   T   T
  0.6249999999697451  0.8749999999714717  0.1074400022508328   F   F   F
  0.6250708957829175  0.8728680108178358  0.2946665133841836   T   T   T
  0.6251391513714954  0.7509682995148160  0.1980830268768308   T   T   T
  0.7500000000051870  0.5000000000034603  0.1074400022508328   F   F   F
  0.7501171878801171  0.5020184460635055  0.2946330771171002   T   T   T
  0.7499869856367453  0.6239889540112211  0.1982204719734297   T   T   T
  0.8749999999714717  0.8749999999714717  0.1074400022508328   F   F   F
  0.8749642081999426  0.8729903486123303  0.2946963814746127   T   T   T
  0.8748035799931465  0.7511899152217485  0.1980292256968595   T   T   T
  0.1249999999662847  0.1249999999662847  0.1074400022508328   F   F   F
  0.1250371616667825  0.1307830534918816  0.2895986212280751   T   T   T
  0.1249897341719684 -0.0001342103220733  0.2014831279360653   T   T   T
  0.0000000000000000  0.2500000000017266  0.1074400022508328   F   F   F
  0.9997714109177513  0.2431094782980340  0.2896043197944200   T   T   T
  0.0008958137448475  0.3755183384050712  0.2019507243119038   T   T   T
  0.3749999999680114  0.1249999999662847  0.1074400022508328   F   F   F
  0.3754962144230454  0.1304231591166582  0.2893472912036025   T   T   T
  0.3750275963491340  0.9998149473951818  0.2014186934047313   T   T   T
  0.2500000000017266  0.2500000000017266  0.1074400022508328   F   F   F
  0.2515988099051031  0.2420717490282620  0.2890310344847120   T   T   T
  0.2498989781166245  0.3755982625181190  0.2021465542363386   T   T   T
  0.6249999999697451  0.1249999999662847  0.1074400022508328   F   F   F
  0.6252008966232412  0.1305721844796415  0.2895847542257751   T   T   T
  0.6250922167603807  0.9998700669475854  0.2014241577028202   T   T   T
  0.5000000000034603  0.2500000000017266  0.1074400022508328   F   F   F
  0.5000456970933093  0.2432000117035246  0.2896822047499990   T   T   T
  0.5005096100421900  0.3751296808410985  0.2010449368986066   T   T   T
  0.8749999999714717  0.1249999999662847  0.1074400022508328   F   F   F
  0.8749294265693169  0.1310493862008546  0.2896509027215248   T   T   T
  0.8749805418266001  0.9998587659612106  0.2014324345778764   T   T   T
  0.7500000000051870  0.2500000000017266  0.1074400022508328   F   F   F
  0.7501315007315352  0.2443976726194952  0.2895549639604348   T   T   T
  0.7500033342157475  0.3750919854855415  0.2014845299081973   T   T   T
  0.1249999999662847  0.6249999999697451  0.1074400022508328   F   F   F
  0.1233762382997678  0.6320712557765845  0.2887924044538352   T   T   T
  0.1253188780625138  0.4999851688776126  0.2018197048038256   T   T   T
  0.0000000000000000  0.7500000000051870  0.1074400022508328   F   F   F
  0.9997488103034591  0.7443285777460635  0.2894184440871663   T   T   T
  1.0000168701199419  0.8751732537735172  0.2014512903534365   T   T   T
  0.3749999999680114  0.6249999999697451  0.1074400022508328   F   F   F
  0.3765070421499321  0.6320806995036288  0.2896426672275704   T   T   T
  0.3743029402432553  0.4994664738111832  0.2020873705382674   T   T   T
  0.2500000000017266  0.7500000000051870  0.1074400022508328   F   F   F
  0.2499787385924044  0.7432839100871093  0.2897116509691090   T   T   T
  0.2500042618901421  0.8750965454969093  0.2014769346119310   T   T   T
  0.6249999999697451  0.6249999999697451  0.1074400022508328   F   F   F
  0.6248490003614842  0.6306055852953817  0.2895993377308027   T   T   T
  0.6249943473108650  0.4998693283075788  0.2014715573747999   T   T   T
  0.5000000000034603  0.7500000000051870  0.1074400022508328   F   F   F
  0.5004569716418619  0.7442589267341139  0.2894930614652879   T   T   T
  0.5000745045795862  0.8751515163146814  0.2014170697289835   T   T   T
  0.8749999999714717  0.6249999999697451  0.1074400022508328   F   F   F
  0.8749123974970870  0.6315300778801918  0.2897612785516402   T   T   T
  0.8745775373397275  0.4998230277049950  0.2011225640353661   T   T   T
  0.7500000000051870  0.7500000000051870  0.1074400022508328   F   F   F
  0.7499002933922182  0.7442194778984509  0.2897547724916802   T   T   T
  0.7500017484770057  0.8751051770824626  0.2014784902805730   T   T   T
  0.2406288082386027  0.3838718961257066  0.4485221102786019   T   T   T
  0.1816366022928775  0.3047689473045440  0.4751312760540559   T   T   T
  0.1902888250958306  0.4417726945216769  0.3972073297563566   T   T   T
  0.2997947469682148  0.3579832483230727  0.4167442772772649   T   T   T
  0.1228664913234929  0.3290314970772409  0.5075996277339123   T   T   T
  0.1544229322979646  0.2653289080455580  0.4289093311816515   T   T   T
  0.2677122732901002  0.4281753513730872  0.4916937877535655   T   T   T
  0.2235358421129834  0.2574442104551187  0.5080738509584843   T   T   T
  0.1435760432563223  0.4800039790423352  0.4209911538823715   T   T   T
 
