 Cu   Co   C    O    H                  
1.0
       14.4588003159         0.0000000000         0.0000000000
        0.0000000000        14.4588003159         0.0000000000
        0.0000000000         0.0000000000        18.6147003174
   Cu   Co    C    O    H
   48   48    2    1    3
Direct
     0.000000000         0.000000000         0.107440002
     0.999760687         0.001608165         0.294574827
     0.999669075         0.123559035         0.197535321
     0.125000000         0.375000000         0.107440002
     0.121827863         0.372722059         0.299281269
     0.125752389         0.251399159         0.199371234
     0.250000000         0.000000000         0.107440002
     0.249763906         0.001495816         0.294145554
     0.249809042         0.123122543         0.196701914
     0.375000000         0.375000000         0.107440002
     0.370622933         0.375240713         0.301584303
     0.374928325         0.251937598         0.198086873
     0.500000000         0.000000000         0.107440002
     0.500482321         0.002417117         0.294488937
     0.499634981         0.124240503         0.197927445
     0.625000000         0.375000000         0.107440002
     0.625023842         0.373056054         0.294152528
     0.624997139         0.251604259         0.197789654
     0.750000000         0.000000000         0.107440002
     0.749636471         0.002223904         0.294548750
     0.750018001         0.123949438         0.197865069
     0.875000000         0.375000000         0.107440002
     0.875681579         0.373199672         0.293937296
     0.875198305         0.251166284         0.197835296
     0.000000000         0.500000000         0.107440002
     0.998859286         0.504040718         0.293670028
     0.999763727         0.624307752         0.197566316
     0.125000000         0.875000000         0.107440002
     0.125084773         0.872150600         0.294380277
     0.125192553         0.751291871         0.197691187
     0.250000000         0.500000000         0.107440002
     0.253912836         0.506094754         0.297759473
     0.250390261         0.622910619         0.198411554
     0.375000000         0.875000000         0.107440002
     0.375321388         0.873057187         0.294013411
     0.375085384         0.751198649         0.197700068
     0.500000000         0.500000000         0.107440002
     0.501251698         0.502282441         0.294372827
     0.500167131         0.623977304         0.197534919
     0.625000000         0.875000000         0.107440002
     0.625042081         0.873071611         0.294652522
     0.625259519         0.751090229         0.197812751
     0.750000000         0.500000000         0.107440002
     0.749923229         0.502063870         0.294237584
     0.749942839         0.624107361         0.198067859
     0.875000000         0.875000000         0.107440002
     0.874868095         0.872678638         0.294721425
     0.874733925         0.751065850         0.197935879
     0.125000000         0.125000000         0.107440002
     0.124414600         0.129008323         0.288591325
     0.124807484         0.999666095         0.201353177
     0.000000000         0.250000000         0.107440002
     0.999020636         0.242153957         0.289295882
     0.002458115         0.375083715         0.202395380
     0.375000000         0.125000000         0.107440002
     0.375332505         0.129153863         0.289848387
     0.375261784         0.001076614         0.201552257
     0.250000000         0.250000000         0.107440002
     0.252096236         0.236421555         0.290711135
     0.248422459         0.374247193         0.198416010
     0.625000000         0.125000000         0.107440002
     0.624733448         0.131116852         0.289033532
     0.625054240         0.999948382         0.201207295
     0.500000000         0.250000000         0.107440002
     0.502280295         0.244999334         0.288805366
     0.498030722         0.375369847         0.202319100
     0.875000000         0.125000000         0.107440002
     0.874718666         0.130201027         0.289164543
     0.874868333         0.999510825         0.201371208
     0.750000000         0.250000000         0.107440002
     0.750442505         0.244126022         0.289206296
     0.750493467         0.375135690         0.201024070
     0.125000000         0.625000000         0.107440002
     0.123912059         0.632201493         0.288874686
     0.125887737         0.499461710         0.201732099
     0.000000000         0.750000000         0.107440002
     0.999787867         0.744156420         0.289187729
     0.999871433         0.874993145         0.201364994
     0.375000000         0.625000000         0.107440002
     0.377671033         0.632057309         0.289224356
     0.375424296         0.497685373         0.202020198
     0.250000000         0.750000000         0.107440002
     0.250466108         0.743147612         0.289160520
     0.250119865         0.874843836         0.201148793
     0.625000000         0.625000000         0.107440002
     0.624764383         0.631213546         0.289379001
     0.624973893         0.499979228         0.201133490
     0.500000000         0.750000000         0.107440002
     0.500513017         0.744660676         0.288903922
     0.500488460         0.875378966         0.201144710
     0.875000000         0.625000000         0.107440002
     0.874615788         0.631290138         0.289438099
     0.874665380         0.500121176         0.200785100
     0.750000000         0.750000000         0.107440002
     0.749658465         0.744454861         0.289544791
     0.750072837         0.875050306         0.201427847
     0.291600704         0.412192643         0.383669704
     0.331945807         0.268901706         0.369635135
     0.202626973         0.411779970         0.387202054
     0.328843355         0.436454147         0.432022393
     0.401012421         0.249730617         0.391681135
     0.282717735         0.263730466         0.413986027
