CONTCAR-CH2CH2O             
   1.00000000000000     
    14.4588003158999996    0.0000000000000000    0.0000000000000000
     0.0000000000000000   14.4588003158999996    0.0000000000000000
     0.0000000000000000    0.0000000000000000   18.6147003174000005
   Cu   Co   C    O    H 
    48    48     2     1     4
Selective dynamics
Direct
  0.0000000000000000  0.0000000000000000  0.1074400022508328   F   F   F
  0.9995279275527551  0.0021227813412281  0.2946669670322706   F   F   F
  0.0002291846864537  0.1240109471042956  0.1977973804773541   F   F   F
  0.1249999999662847  0.3749999999680114  0.1074400022508328   F   F   F
  0.1193894867007828  0.3745175994697192  0.3000261466481859   F   F   F
  0.1270023390617965  0.2523808375550374  0.2006221545236357   F   F   F
  0.2500000000017266  0.0000000000000000  0.1074400022508328   F   F   F
  0.2500880222767776  0.0019006728773832  0.2943136890938050   F   F   F
  0.2496809085646419  0.1249931319644091  0.1980465265532061   F   F   F
  0.3749999999680114  0.3749999999680114  0.1074400022508328   F   F   F
  0.3755582304697214  0.3672686452407206  0.2982674420275160   F   F   F
  0.3749439001121502  0.2505087474044529  0.1980854377963013   F   F   F
  0.5000000000034603  0.0000000000000000  0.1074400022508328   F   F   F
  0.5008696106030612  0.0017084413163744  0.2946625228197419   F   F   F
  0.5004904865081272  0.1235837929298782  0.1971631924623551   F   F   F
  0.6249999999697451  0.3749999999680114  0.1074400022508328   F   F   F
  0.6245519846321699  0.3727930174658027  0.2943153404183292   F   F   F
  0.6252317897925579  0.2512358143435947  0.1977636788419588   F   F   F
  0.7500000000051870  0.0000000000000000  0.1074400022508328   F   F   F
  0.7501834541443770  0.0019198605078969  0.2947747291426381   F   F   F
  0.7500645842592704  0.1239608133473027  0.1979868766642099   F   F   F
  0.8749999999714717  0.3749999999680114  0.1074400022508328   F   F   F
  0.8753474857780645  0.3726344897143505  0.2941078529045171   F   F   F
  0.8750067844451692  0.2510989714087088  0.1978927387453169   F   F   F
  0.0000000000000000  0.5000000000034603  0.1074400022508328   F   F   F
  0.9964516946426087  0.5044440472941076  0.2936344792106880   F   F   F
  0.9995878267972813  0.6244136132714644  0.1976852855845621   F   F   F
  0.1249999999662847  0.8749999999714717  0.1074400022508328   F   F   F
  0.1248816978094283  0.8726707820928183  0.2945315444396570   F   F   F
  0.1251777661568170  0.7513160241408556  0.1976577669866444   F   F   F
  0.2500000000017266  0.5000000000034603  0.1074400022508328   F   F   F
  0.2520244767115969  0.5067428105069425  0.2982044850470587   F   F   F
  0.2497595340503693  0.6227043927394362  0.1988477811701941   F   F   F
  0.3749999999680114  0.8749999999714717  0.1074400022508328   F   F   F
  0.3753122527611978  0.8725397312194687  0.2944226514421118   F   F   F
  0.3751257525599669  0.7511947331525164  0.1977705778679777   F   F   F
  0.5000000000034603  0.5000000000034603  0.1074400022508328   F   F   F
  0.4992462060001088  0.5013183923232063  0.2946102890080340   F   F   F
  0.5000168601928010  0.6235427407889276  0.1978169736789681   F   F   F
  0.6249999999697451  0.8749999999714717  0.1074400022508328   F   F   F
  0.6251479162839075  0.8728725308208212  0.2947858477498855   F   F   F
  0.6251177088223940  0.7509589610568241  0.1980634620439545   F   F   F
  0.7500000000051870  0.5000000000034603  0.1074400022508328   F   F   F
  0.7500989065167047  0.5018557954366472  0.2944146036725854   F   F   F
  0.7499244918281107  0.6240391443546258  0.1981562369960841   F   F   F
  0.8749999999714717  0.8749999999714717  0.1074400022508328   F   F   F
  0.8747839576004353  0.8729883602772261  0.2947834762701191   F   F   F
  0.8746789744686225  0.7512873576004040  0.1978863962940665   F   F   F
  0.1249999999662847  0.1249999999662847  0.1074400022508328   F   F   F
  0.1250919795338987  0.1290022233896480  0.2894010045849740   F   F   F
  0.1248888092830853  0.0001218432253154  0.2016476823414948   F   F   F
  0.0000000000000000  0.2500000000017266  0.1074400022508328   F   F   F
  0.9990849872270360  0.2426605292448798  0.2895844529959177   F   F   F
  0.0020085374908589  0.3747920358371246  0.2021794649072319   F   F   F
  0.3749999999680114  0.1249999999662847  0.1074400022508328   F   F   F
  0.3770150775392835  0.1268768135386651  0.2880408945163282   F   F   F
  0.3749979022190431  0.9998819227579219  0.2013903322559187   F   F   F
  0.2500000000017266  0.2500000000017266  0.1074400022508328   F   F   F
  0.2551824516475065  0.2423891740857513  0.2941620848458371   F   F   F
  0.2497910747180399  0.3760181360535810  0.2005747119448102   F   F   F
  0.6249999999697451  0.1249999999662847  0.1074400022508328   F   F   F
  0.6252186048449673  0.1300732704964815  0.2890583977302796   F   F   F
  0.6254584988475926  0.9994432019885124  0.2011813262650364   F   F   F
  0.5000000000034603  0.2500000000017266  0.1074400022508328   F   F   F
  0.5028642318397090  0.2418003022278228  0.2892506668820118   F   F   F
  0.4987278679116471  0.3751521926083399  0.2017925719670544   F   F   F
  0.8749999999714717  0.1249999999662847  0.1074400022508328   F   F   F
  0.8747920182756417  0.1306228493425294  0.2893870592892611   F   F   F
  0.8748865066291387  0.9997474237574693  0.2013592992575894   F   F   F
  0.7500000000051870  0.2500000000017266  0.1074400022508328   F   F   F
  0.7500064557749155  0.2439377964834293  0.2895973041311990   F   F   F
  0.7500155996391769  0.3750375355346804  0.2012374886382489   F   F   F
  0.1249999999662847  0.6249999999697451  0.1074400022508328   F   F   F
  0.1223212855289333  0.6340638821431739  0.2898928414478945   F   F   F
  0.1242793171849712  0.5002061911422402  0.2007401700746954   F   F   F
  0.0000000000000000  0.7500000000051870  0.1074400022508328   F   F   F
  0.9993528733576369  0.7445810525892824  0.2892662693110850   F   F   F
  0.9999359099620619  0.8751750710464705  0.2013826199339235   F   F   F
  0.3749999999680114  0.6249999999697451  0.1074400022508328   F   F   F
  0.3765652661388970  0.6318807336813066  0.2891605933481429   F   F   F
  0.3739624416890024  0.4979496502489766  0.2029163053063385   F   F   F
  0.2500000000017266  0.7500000000051870  0.1074400022508328   F   F   F
  0.2503597270374058  0.7438089955226843  0.2892142635144737   F   F   F
  0.2500349539581563  0.8748057833235805  0.2013900202921661   F   F   F
  0.6249999999697451  0.6249999999697451  0.1074400022508328   F   F   F
  0.6247513756383967  0.6304508270085449  0.2895178268615481   F   F   F
  0.6249805946734099  0.4998784285764586  0.2014559107861942   F   F   F
  0.5000000000034603  0.7500000000051870  0.1074400022508328   F   F   F
  0.5006506210421406  0.7439988352197844  0.2893372909285645   F   F   F
  0.5002706736627758  0.8751092490576653  0.2012930355118243   F   F   F
  0.8749999999714717  0.6249999999697451  0.1074400022508328   F   F   F
  0.8742967545272720  0.6321331867767128  0.2898174019054451   F   F   F
  0.8742915522907850  0.4997985460042500  0.2008003786564601   F   F   F
  0.7500000000051870  0.7500000000051870  0.1074400022508328   F   F   F
  0.7496061244225984  0.7445435751555962  0.2896135453567936   F   F   F
  0.7499635658306190  0.8751085924574369  0.2014253052234167   F   F   F
  0.2551501289396967  0.3898090739344440  0.4208796999709961   T   T   T
  0.3016537762157370  0.3064171199460901  0.3859113019906886   T   T   T
  0.1910834007376039  0.4376663559701583  0.3760903071277966   T   T   T
  0.3095574904682863  0.4386323034301043  0.4383872889474318   T   T   T
  0.3608905927548776  0.2820459247079512  0.4180935052130295   T   T   T
  0.2507103776724335  0.2449628561105328  0.3898538650530270   T   T   T
  0.2172172098280854  0.3676607551062575  0.4689051117799376   T   T   T
 
